%%MatrixMarket matrix coordinate real general
456 456 21008
1 1      -3.9824074074074048e+01
1 2      -8.4134722222222162e+00
1 3      -8.4134722222222180e+00
1 4      -1.4022592592592595e+01
1 5      -1.6826388888888895e+00
1 6      -1.6826388888888892e+00
1 16       7.0112962962962930e+00
1 17       1.6826388888888892e+00
1 18      -4.2067361111111108e+00
1 19       6.4503703703703676e+00
1 20       8.4134722222222198e+00
1 21      -8.4131944444444451e-01
1 46       7.0112962962962975e+00
1 47      -4.2067361111111108e+00
1 48       1.6826388888888895e+00
1 49       6.4503703703703685e+00
1 50      -8.4131944444444451e-01
1 51       8.4134722222222198e+00
1 61       1.6967314814814813e+01
1 62       8.4131944444444451e-01
1 63       8.4131944444444429e-01
1 64       9.9560185185185155e+00
1 65       4.2067361111111108e+00
1 66       4.2067361111111108e+00
2 2      -8.1891435185185202e+01
2 1      -8.2884722222222162e+00
2 3      -3.3653888888888879e+01
2 4       1.6826388888888890e+00
2 5      -3.9263009259259256e+01
2 6      -1.6826944444444443e+01
2 16      -1.6826388888888886e+00
2 17       5.3285393518518518e+01
2 18      -6.7305555555555561e+00
2 19       8.4134722222222180e+00
2 20       2.7484050925925928e+01
2 21      -3.3652777777777771e+00
2 46      -4.2067361111111099e+00
2 47      -1.4022384259259253e+01
2 48       6.7305555555555570e+00
2 49       8.4131944444444440e-01
2 50      -6.1698379629629612e+00
2 51       3.3652777777777798e+00
2 61      -8.4131944444444451e-01
2 62       4.0104363425925925e+01
2 63       3.3653888888888879e+01
2 64       4.2067361111111108e+00
2 65       2.0472858796296290e+01
2 66       1.6826944444444440e+01
3 3      -8.1891435185185173e+01
3 1      -8.5384722222222180e+00
3 2      -3.3653888888888879e+01
3 4       1.6826388888888892e+00
3 5      -1.6826944444444443e+01
3 6      -3.9263009259259263e+01
3 16      -4.2067361111111108e+00
3 17       6.7305555555555552e+00
3 18      -1.4022384259259255e+01
3 19       8.4131944444444451e-01
3 20       3.3652777777777780e+00
3 21      -6.1698379629629629e+00
3 46      -1.6826388888888890e+00
3 47      -6.7305555555555543e+00
3 48       5.3285393518518525e+01
3 49       8.4134722222222180e+00
3 50      -3.3652777777777771e+00
3 51       2.7484050925925931e+01
3 61      -8.4131944444444429e-01
3 62       3.3653888888888879e+01
3 63       4.0104363425925925e+01
3 64       4.2067361111111108e+00
3 65       1.6826944444444443e+01
3 66       2.0472858796296290e+01
4 4      -7.9648148148148096e+01
4 1      -1.4147592592592595e+01
4 2       1.6826388888888890e+00
4 3       1.6826388888888892e+00
4 5       1.7763568394002505e-15
4 6       0.0000000000000000e+00
4 7      -1.4022592592592595e+01
4 8      -1.6826388888888895e+00
4 9      -1.6826388888888897e+00
4 16       6.4503703703703676e+00
4 17      -8.4134722222222180e+00
4 18       8.4131944444444451e-01
4 19       1.4022592592592588e+01
4 20      -2.2204460492503131e-16
4 21       1.7763568394002505e-15
4 22       6.4503703703703676e+00
4 23       8.4134722222222198e+00
4 24      -8.4131944444444473e-01
4 46       6.4503703703703685e+00
4 47       8.4131944444444440e-01
4 48      -8.4134722222222198e+00
4 49       1.4022592592592595e+01
4 50      -8.8817841970012523e-16
4 51      -2.2204460492503131e-16
4 52       6.4503703703703685e+00
4 53      -8.4131944444444473e-01
4 54       8.4134722222222198e+00
4 61       9.9560185185185155e+00
4 62      -4.2067361111111108e+00
4 63      -4.2067361111111108e+00
4 64       3.3934629629629626e+01
4 65      -2.2204460492503131e-16
4 66      -4.4408920985006262e-16
4 67       9.9560185185185155e+00
4 68       4.2067361111111108e+00
4 69       4.2067361111111108e+00
5 5      -1.6378287037037040e+02
5 1      -1.6826388888888895e+00
5 2      -3.9263009259259256e+01
5 3      -1.6826944444444443e+01
5 4       1.7763568394002505e-15
5 6      -6.7307777777777744e+01
5 7       1.6826388888888890e+00
5 8      -3.9263009259259249e+01
5 9      -1.6826944444444447e+01
5 16      -8.4134722222222162e+00
5 17       2.7484050925925928e+01
5 18      -3.3652777777777780e+00
5 19       2.2204460492503131e-16
5 20       1.0657078703703704e+02
5 21      -1.3461111111111112e+01
5 22       8.4134722222222180e+00
5 23       2.7484050925925924e+01
5 24      -3.3652777777777780e+00
5 46      -8.4131944444444451e-01
5 47      -6.1698379629629621e+00
5 48       3.3652777777777798e+00
5 49       0.0000000000000000e+00
5 50      -2.8044768518518509e+01
5 51       1.3461111111111116e+01
5 52       8.4131944444444462e-01
5 53      -6.1698379629629621e+00
5 54       3.3652777777777771e+00
5 61      -4.2067361111111108e+00
5 62       2.0472858796296290e+01
5 63       1.6826944444444443e+01
5 64      -2.2204460492503131e-16
5 65       8.0208726851851864e+01
5 66       6.7307777777777773e+01
5 67       4.2067361111111108e+00
5 68       2.0472858796296293e+01
5 69       1.6826944444444440e+01
6 6      -1.6378287037037035e+02
6 1      -1.6826388888888892e+00
6 2      -1.6826944444444443e+01
6 3      -3.9263009259259263e+01
6 4       0.0000000000000000e+00
6 5      -6.7307777777777744e+01
6 7       1.6826388888888895e+00
6 8      -1.6826944444444443e+01
6 9      -3.9263009259259256e+01
6 16      -8.4131944444444473e-01
6 17       3.3652777777777780e+00
6 18      -6.1698379629629629e+00
6 19       8.8817841970012523e-16
6 20       1.3461111111111116e+01
6 21      -2.8044768518518509e+01
6 22       8.4131944444444451e-01
6 23       3.3652777777777789e+00
6 24      -6.1698379629629647e+00
6 46      -8.4134722222222198e+00
6 47      -3.3652777777777771e+00
6 48       2.7484050925925931e+01
6 49       2.2204460492503131e-16
6 50      -1.3461111111111114e+01
6 51       1.0657078703703704e+02
6 52       8.4134722222222180e+00
6 53      -3.3652777777777798e+00
6 54       2.7484050925925928e+01
6 61      -4.2067361111111117e+00
6 62       1.6826944444444443e+01
6 63       2.0472858796296290e+01
6 64       2.2204460492503131e-16
6 65       6.7307777777777773e+01
6 66       8.0208726851851864e+01
6 67       4.2067361111111108e+00
6 68       1.6826944444444447e+01
6 69       2.0472858796296293e+01
7 7      -7.9648148148148124e+01
7 4      -1.4022592592592595e+01
7 5       1.6826388888888890e+00
7 6       1.6826388888888895e+00
7 8       1.7763568394002505e-15
7 9       1.7763568394002505e-15
7 10      -1.4022592592592600e+01
7 11      -1.6826388888888901e+00
7 12      -1.6826388888888897e+00
7 19       6.4503703703703676e+00
7 20      -8.4134722222222180e+00
7 21       8.4131944444444451e-01
7 22       1.4022592592592590e+01
7 23       6.6613381477509392e-16
7 24       8.8817841970012523e-16
7 25       6.4503703703703676e+00
7 26       8.4134722222222198e+00
7 27      -8.4131944444444473e-01
7 49       6.4503703703703685e+00
7 50       8.4131944444444440e-01
7 51      -8.4134722222222198e+00
7 52       1.4022592592592600e+01
7 53       0.0000000000000000e+00
7 54       4.4408920985006262e-16
7 55       6.4503703703703694e+00
7 56      -8.4131944444444473e-01
7 57       8.4134722222222198e+00
7 64       9.9560185185185155e+00
7 65      -4.2067361111111108e+00
7 66      -4.2067361111111108e+00
7 67       3.3934629629629626e+01
7 68       2.2204460492503131e-16
7 69       2.2204460492503131e-16
7 70       9.9560185185185190e+00
7 71       4.2067361111111108e+00
7 72       4.2067361111111108e+00
8 8      -1.6378287037037040e+02
8 4      -1.6826388888888895e+00
8 5      -3.9263009259259249e+01
8 6      -1.6826944444444443e+01
8 7       1.7763568394002505e-15
8 9      -6.7307777777777773e+01
8 10       1.6826388888888899e+00
8 11      -3.9263009259259256e+01
8 12      -1.6826944444444454e+01
8 19      -8.4134722222222162e+00
8 20       2.7484050925925928e+01
8 21      -3.3652777777777780e+00
8 22       2.2204460492503131e-16
8 23       1.0657078703703705e+02
8 24      -1.3461111111111112e+01
8 25       8.4134722222222180e+00
8 26       2.7484050925925935e+01
8 27      -3.3652777777777789e+00
8 49      -8.4131944444444473e-01
8 50      -6.1698379629629629e+00
8 51       3.3652777777777789e+00
8 52       0.0000000000000000e+00
8 53      -2.8044768518518516e+01
8 54       1.3461111111111116e+01
8 55       8.4131944444444440e-01
8 56      -6.1698379629629665e+00
8 57       3.3652777777777789e+00
8 64      -4.2067361111111108e+00
8 65       2.0472858796296293e+01
8 66       1.6826944444444440e+01
8 67      -1.1102230246251565e-16
8 68       8.0208726851851878e+01
8 69       6.7307777777777773e+01
8 70       4.2067361111111108e+00
8 71       2.0472858796296300e+01
8 72       1.6826944444444450e+01
9 9      -1.6378287037037035e+02
9 4      -1.6826388888888897e+00
9 5      -1.6826944444444447e+01
9 6      -3.9263009259259256e+01
9 7       1.7763568394002505e-15
9 8      -6.7307777777777773e+01
9 10       1.6826388888888899e+00
9 11      -1.6826944444444454e+01
9 12      -3.9263009259259270e+01
9 19      -8.4131944444444473e-01
9 20       3.3652777777777780e+00
9 21      -6.1698379629629638e+00
9 22       8.8817841970012523e-16
9 23       1.3461111111111117e+01
9 24      -2.8044768518518520e+01
9 25       8.4131944444444462e-01
9 26       3.3652777777777807e+00
9 27      -6.1698379629629665e+00
9 49      -8.4134722222222180e+00
9 50      -3.3652777777777798e+00
9 51       2.7484050925925928e+01
9 52       6.6613381477509392e-16
9 53      -1.3461111111111119e+01
9 54       1.0657078703703706e+02
9 55       8.4134722222222180e+00
9 56      -3.3652777777777816e+00
9 57       2.7484050925925935e+01
9 64      -4.2067361111111117e+00
9 65       1.6826944444444447e+01
9 66       2.0472858796296293e+01
9 67       2.2204460492503131e-16
9 68       6.7307777777777787e+01
9 69       8.0208726851851878e+01
9 70       4.2067361111111117e+00
9 71       1.6826944444444450e+01
9 72       2.0472858796296300e+01
10 10      -7.9648148148148110e+01
10 7      -1.4022592592592600e+01
10 8       1.6826388888888899e+00
10 9       1.6826388888888899e+00
10 11       3.5527136788005009e-15
10 12       1.7763568394002505e-15
10 13      -1.4022592592592595e+01
10 14      -1.6826388888888899e+00
10 15      -1.6826388888888892e+00
10 22       6.4503703703703694e+00
10 23      -8.4134722222222198e+00
10 24       8.4131944444444462e-01
10 25       1.4022592592592593e+01
10 26      -8.8817841970012523e-16
10 27       8.8817841970012523e-16
10 28       6.4503703703703685e+00
10 29       8.4134722222222198e+00
10 30      -8.4131944444444451e-01
10 52       6.4503703703703694e+00
10 53       8.4131944444444484e-01
10 54      -8.4134722222222198e+00
10 55       1.4022592592592600e+01
10 56       8.8817841970012523e-16
10 57      -4.4408920985006262e-16
10 58       6.4503703703703694e+00
10 59      -8.4131944444444473e-01
10 60       8.4134722222222198e+00
10 67       9.9560185185185190e+00
10 68      -4.2067361111111108e+00
10 69      -4.2067361111111108e+00
10 70       3.3934629629629626e+01
10 71      -1.1102230246251565e-16
10 72      -5.5511151231257827e-16
10 73       9.9560185185185155e+00
10 74       4.2067361111111108e+00
10 75       4.2067361111111099e+00
11 11      -1.6378287037037040e+02
11 7      -1.6826388888888901e+00
11 8      -3.9263009259259256e+01
11 9      -1.6826944444444454e+01
11 10       3.5527136788005009e-15
11 12      -6.7307777777777773e+01
11 13       1.6826388888888886e+00
11 14      -3.9263009259259256e+01
11 15      -1.6826944444444443e+01
11 22      -8.4134722222222180e+00
11 23       2.7484050925925935e+01
11 24      -3.3652777777777798e+00
11 25       1.1102230246251565e-15
11 26       1.0657078703703705e+02
11 27      -1.3461111111111114e+01
11 28       8.4134722222222180e+00
11 29       2.7484050925925917e+01
11 30      -3.3652777777777763e+00
11 52      -8.4131944444444473e-01
11 53      -6.1698379629629656e+00
11 54       3.3652777777777789e+00
11 55       1.7763568394002505e-15
11 56      -2.8044768518518509e+01
11 57       1.3461111111111116e+01
11 58       8.4131944444444440e-01
11 59      -6.1698379629629585e+00
11 60       3.3652777777777780e+00
11 67      -4.2067361111111108e+00
11 68       2.0472858796296300e+01
11 69       1.6826944444444450e+01
11 70       4.4408920985006262e-16
11 71       8.0208726851851864e+01
11 72       6.7307777777777773e+01
11 73       4.2067361111111108e+00
11 74       2.0472858796296286e+01
11 75       1.6826944444444440e+01
12 12      -1.6378287037037040e+02
12 7      -1.6826388888888897e+00
12 8      -1.6826944444444454e+01
12 9      -3.9263009259259270e+01
12 10       1.7763568394002505e-15
12 11      -6.7307777777777773e+01
12 13       1.6826388888888892e+00
12 14      -1.6826944444444443e+01
12 15      -3.9263009259259263e+01
12 22      -8.4131944444444473e-01
12 23       3.3652777777777807e+00
12 24      -6.1698379629629656e+00
12 25       8.8817841970012523e-16
12 26       1.3461111111111116e+01
12 27      -2.8044768518518516e+01
12 28       8.4131944444444451e-01
12 29       3.3652777777777780e+00
12 30      -6.1698379629629621e+00
12 52      -8.4134722222222198e+00
12 53      -3.3652777777777807e+00
12 54       2.7484050925925935e+01
12 55       6.6613381477509392e-16
12 56      -1.3461111111111114e+01
12 57       1.0657078703703708e+02
12 58       8.4134722222222180e+00
12 59      -3.3652777777777771e+00
12 60       2.7484050925925924e+01
12 67      -4.2067361111111117e+00
12 68       1.6826944444444450e+01
12 69       2.0472858796296300e+01
12 70       4.4408920985006262e-16
12 71       6.7307777777777773e+01
12 72       8.0208726851851864e+01
12 73       4.2067361111111108e+00
12 74       1.6826944444444440e+01
12 75       2.0472858796296290e+01
13 13      -3.9824074074074062e+01
13 10      -1.4022592592592595e+01
13 11       1.6826388888888886e+00
13 12       1.6826388888888892e+00
13 14       8.4134722222222198e+00
13 15       8.4134722222222180e+00
13 25       6.4503703703703703e+00
13 26      -8.4134722222222180e+00
13 27       8.4131944444444451e-01
13 28       7.0112962962962948e+00
13 29      -1.6826388888888897e+00
13 30       4.2067361111111126e+00
13 55       6.4503703703703694e+00
13 56       8.4131944444444440e-01
13 57      -8.4134722222222198e+00
13 58       7.0112962962962975e+00
13 59       4.2067361111111117e+00
13 60      -1.6826388888888895e+00
13 70       9.9560185185185155e+00
13 71      -4.2067361111111108e+00
13 72      -4.2067361111111108e+00
13 73       1.6967314814814813e+01
13 74      -8.4131944444444451e-01
13 75      -8.4131944444444473e-01
13 376       0.0000000000000000e+00
13 377       0.0000000000000000e+00
13 378       0.0000000000000000e+00
13 379      -1.4751650462962962e+02
13 380       0.0000000000000000e+00
13 381       0.0000000000000000e+00
13 385       0.0000000000000000e+00
13 386       0.0000000000000000e+00
13 387       0.0000000000000000e+00
13 388       0.0000000000000000e+00
13 389       0.0000000000000000e+00
13 390       0.0000000000000000e+00
14 379      -1.4751650462962962e+02
14 380       0.0000000000000000e+00
14 381       0.0000000000000000e+00
14 385       0.0000000000000000e+00
14 386       0.0000000000000000e+00
14 387       0.0000000000000000e+00
14 388       0.0000000000000000e+00
14 389       0.0000000000000000e+00
14 390       0.0000000000000000e+00
14 28       0.0000000000000000e+00
14 29       5.3285393518518518e+01
14 30      -6.7305555555555570e+00
14 55      -8.4131944444444473e-01
14 56      -6.1698379629629585e+00
14 57       3.3652777777777798e+00
14 58       4.2067361111111117e+00
14 59      -1.4022384259259255e+01
14 60       6.7305555555555623e+00
14 70      -4.2067361111111108e+00
14 71       2.0472858796296290e+01
14 72       1.6826944444444440e+01
14 73       8.4131944444444429e-01
14 74       4.0104363425925925e+01
14 75       3.3653888888888893e+01
14 376       0.0000000000000000e+00
14 377       0.0000000000000000e+00
14 378       0.0000000000000000e+00
14 379      -1.6434358796296297e+02
14 380       0.0000000000000000e+00
14 381       0.0000000000000000e+00
14 385       0.0000000000000000e+00
14 386       0.0000000000000000e+00
14 387       0.0000000000000000e+00
14 388       0.0000000000000000e+00
14 389       0.0000000000000000e+00
14 390       0.0000000000000000e+00
15 379      -1.6434358796296297e+02
15 380       0.0000000000000000e+00
15 381       0.0000000000000000e+00
15 385       0.0000000000000000e+00
15 386       0.0000000000000000e+00
15 387       0.0000000000000000e+00
15 388       0.0000000000000000e+00
15 389       0.0000000000000000e+00
15 390       0.0000000000000000e+00
15 28       0.0000000000000000e+00
15 29       6.7305555555555587e+00
15 30      -1.4022384259259251e+01
15 55      -8.4134722222222198e+00
15 56      -3.3652777777777763e+00
15 57       2.7484050925925924e+01
15 58       1.6826388888888892e+00
15 59      -6.7305555555555534e+00
15 60       5.3285393518518518e+01
15 70      -4.2067361111111117e+00
15 71       1.6826944444444440e+01
15 72       2.0472858796296293e+01
15 73       8.4131944444444451e-01
15 74       3.3653888888888886e+01
15 75       4.0104363425925925e+01
15 376       0.0000000000000000e+00
15 377       0.0000000000000000e+00
15 378       0.0000000000000000e+00
15 379      -1.2620277777777771e+02
15 380       0.0000000000000000e+00
15 381       0.0000000000000000e+00
15 385       0.0000000000000000e+00
15 386       0.0000000000000000e+00
15 387       0.0000000000000000e+00
15 388       0.0000000000000000e+00
15 389       0.0000000000000000e+00
15 390       0.0000000000000000e+00
16 379      -1.2620277777777771e+02
16 380       0.0000000000000000e+00
16 381       0.0000000000000000e+00
16 385       0.0000000000000000e+00
16 386       0.0000000000000000e+00
16 387       0.0000000000000000e+00
16 388       0.0000000000000000e+00
16 389       0.0000000000000000e+00
16 390       0.0000000000000000e+00
16 19       0.0000000000000000e+00
16 20       0.0000000000000000e+00
16 21      -3.3652777777777780e+00
16 31       7.0112962962962957e+00
16 32       1.6826388888888886e+00
16 33      -4.2067361111111108e+00
16 34       6.4503703703703676e+00
16 35       8.4134722222222198e+00
16 36      -8.4131944444444473e-01
16 46       1.6967314814814813e+01
16 47      -8.4131944444444429e-01
16 48       8.4131944444444473e-01
16 49       9.9560185185185155e+00
16 50      -4.2067361111111108e+00
16 51       4.2067361111111108e+00
16 61       1.4022592592592597e+01
16 62       0.0000000000000000e+00
16 63       3.3652777777777780e+00
16 64       1.2900740740740737e+01
16 65       0.0000000000000000e+00
16 66       1.6826944444444443e+01
16 76       1.6967314814814813e+01
16 77       8.4131944444444451e-01
16 78       8.4131944444444406e-01
16 79       9.9560185185185155e+00
16 80       4.2067361111111099e+00
16 81       4.2067361111111099e+00
17 17      -1.6378287037037040e+02
17 1       1.9326388888888895e+00
17 2       5.3285393518518518e+01
17 3       6.7305555555555552e+00
17 4      -8.4134722222222180e+00
17 5       2.7484050925925928e+01
17 6       3.3652777777777780e+00
17 16       3.5527136788005009e-15
17 18       0.0000000000000000e+00
17 19       6.6613381477509392e-16
17 20      -7.8526018518518498e+01
17 21       0.0000000000000000e+00
17 31      -1.6826388888888895e+00
17 32       5.3285393518518525e+01
17 33      -6.7305555555555543e+00
17 34       8.4134722222222180e+00
17 35       2.7484050925925928e+01
17 36      -3.3652777777777771e+00
17 46       8.4131944444444473e-01
17 47       4.0104363425925925e+01
17 48      -3.3653888888888886e+01
17 49      -4.2067361111111108e+00
17 50       2.0472858796296290e+01
17 51      -1.6826944444444443e+01
17 61      -8.8817841970012523e-16
17 62      -2.8044768518518509e+01
17 63       0.0000000000000000e+00
17 64       1.1102230246251565e-16
17 65      -1.2339675925925924e+01
17 66      -8.8817841970012523e-16
17 76      -8.4131944444444473e-01
17 77       4.0104363425925925e+01
17 78       3.3653888888888879e+01
17 79       4.2067361111111099e+00
17 80       2.0472858796296290e+01
17 81       1.6826944444444440e+01
18 18      -1.6378287037037035e+02
18 1      -4.4567361111111099e+00
18 2      -6.7305555555555561e+00
18 3      -1.4022384259259255e+01
18 4       8.4131944444444451e-01
18 5      -3.3652777777777780e+00
18 6      -6.1698379629629629e+00
18 16      -1.6826944444444440e+01
18 17       0.0000000000000000e+00
18 19       3.3652777777777776e+00
18 20       0.0000000000000000e+00
18 21      -7.8526018518518526e+01
18 31      -4.2067361111111108e+00
18 32       6.7305555555555570e+00
18 33      -1.4022384259259253e+01
18 34       8.4131944444444418e-01
18 35       3.3652777777777780e+00
18 36      -6.1698379629629621e+00
18 46      -8.4131944444444429e-01
18 47      -3.3653888888888879e+01
18 48       4.0104363425925925e+01
18 49       4.2067361111111117e+00
18 50      -1.6826944444444443e+01
18 51       2.0472858796296290e+01
18 61      -3.3652777777777780e+00
18 62       0.0000000000000000e+00
18 63       1.0657078703703705e+02
18 64       1.6826944444444440e+01
18 65      -4.4408920985006262e-16
18 66       5.4968101851851856e+01
18 76      -8.4131944444444495e-01
18 77       3.3653888888888879e+01
18 78       4.0104363425925932e+01
18 79       4.2067361111111108e+00
18 80       1.6826944444444443e+01
18 81       2.0472858796296290e+01
19 19      -1.5929629629629622e+02
19 1       6.2003703703703685e+00
19 2       8.4134722222222180e+00
19 3       8.4131944444444451e-01
19 4       1.4022592592592588e+01
19 5       2.2204460492503131e-16
19 6       8.8817841970012523e-16
19 7       6.4503703703703676e+00
19 8      -8.4134722222222162e+00
19 9      -8.4131944444444473e-01
19 16      -2.8045185185185190e+01
19 17       6.6613381477509392e-16
19 18       3.3652777777777776e+00
19 20       3.5527136788005009e-15
19 21       1.7763568394002505e-15
19 22      -2.8045185185185190e+01
19 23      -2.2204460492503131e-16
19 24      -3.3652777777777780e+00
19 31       6.4503703703703694e+00
19 32      -8.4134722222222180e+00
19 33       8.4131944444444429e-01
19 34       1.4022592592592590e+01
19 35      -1.9984014443252818e-15
19 36       0.0000000000000000e+00
19 37       6.4503703703703676e+00
19 38       8.4134722222222198e+00
19 39      -8.4131944444444495e-01
19 46       9.9560185185185155e+00
19 47       4.2067361111111108e+00
19 48      -4.2067361111111108e+00
19 49       3.3934629629629626e+01
19 50       1.1102230246251565e-16
19 51      -2.2204460492503131e-16
19 52       9.9560185185185155e+00
19 53      -4.2067361111111108e+00
19 54       4.2067361111111108e+00
19 61       1.2900740740740737e+01
19 62       3.3306690738754696e-16
19 63      -1.6826944444444443e+01
19 64       2.8045185185185197e+01
19 65       0.0000000000000000e+00
19 66      -1.3322676295501878e-15
19 67       1.2900740740740737e+01
19 68      -1.1102230246251565e-16
19 69       1.6826944444444443e+01
19 76       9.9560185185185190e+00
19 77      -4.2067361111111108e+00
19 78      -4.2067361111111099e+00
19 79       3.3934629629629626e+01
19 80      -2.2204460492503131e-16
19 81      -4.4408920985006262e-16
19 82       9.9560185185185155e+00
19 83       4.2067361111111108e+00
19 84       4.2067361111111099e+00
20 20      -3.2756574074074081e+02
20 1       8.4134722222222198e+00
20 2       2.7484050925925928e+01
20 3       3.3652777777777780e+00
20 4      -2.2204460492503131e-16
20 5       1.0657078703703704e+02
20 6       1.3461111111111116e+01
20 7      -8.4134722222222180e+00
20 8       2.7484050925925928e+01
20 9       3.3652777777777780e+00
20 16       0.0000000000000000e+00
20 17      -7.8526018518518498e+01
20 18       0.0000000000000000e+00
20 19       3.5527136788005009e-15
20 21       2.1316282072803006e-14
20 22       2.2204460492503131e-16
20 23      -7.8526018518518498e+01
20 24      -3.5527136788005009e-15
20 31      -8.4134722222222162e+00
20 32       2.7484050925925935e+01
20 33      -3.3652777777777780e+00
20 34      -1.1102230246251565e-15
20 35       1.0657078703703704e+02
20 36      -1.3461111111111112e+01
20 37       8.4134722222222180e+00
20 38       2.7484050925925924e+01
20 39      -3.3652777777777780e+00
20 46       4.2067361111111108e+00
20 47       2.0472858796296290e+01
20 48      -1.6826944444444443e+01
20 49       0.0000000000000000e+00
20 50       8.0208726851851864e+01
20 51      -6.7307777777777773e+01
20 52      -4.2067361111111108e+00
20 53       2.0472858796296293e+01
20 54      -1.6826944444444443e+01
20 61      -3.3306690738754696e-16
20 62      -1.2339675925925924e+01
20 63       0.0000000000000000e+00
20 64      -8.8817841970012523e-16
20 65      -5.6089537037037026e+01
20 66      -4.4408920985006262e-15
20 67       1.1102230246251565e-16
20 68      -1.2339675925925924e+01
20 69      -2.6645352591003757e-15
20 76      -4.2067361111111108e+00
20 77       2.0472858796296293e+01
20 78       1.6826944444444440e+01
20 79      -6.6613381477509392e-16
20 80       8.0208726851851864e+01
20 81       6.7307777777777773e+01
20 82       4.2067361111111108e+00
20 83       2.0472858796296293e+01
20 84       1.6826944444444440e+01
21 21      -3.2756574074074069e+02
21 1      -8.4131944444444451e-01
21 2      -3.3652777777777771e+00
21 3      -6.1698379629629629e+00
21 4       1.7763568394002505e-15
21 5      -1.3461111111111112e+01
21 6      -2.8044768518518509e+01
21 7       8.4131944444444451e-01
21 8      -3.3652777777777780e+00
21 9      -6.1698379629629638e+00
21 16      -3.3652777777777780e+00
21 17       0.0000000000000000e+00
21 18      -7.8526018518518526e+01
21 19       1.7763568394002505e-15
21 20       2.1316282072803006e-14
21 22       3.3652777777777780e+00
21 23      -3.5527136788005009e-15
21 24      -7.8526018518518526e+01
21 31      -8.4131944444444495e-01
21 32       3.3652777777777780e+00
21 33      -6.1698379629629621e+00
21 34       0.0000000000000000e+00
21 35       1.3461111111111116e+01
21 36      -2.8044768518518513e+01
21 37       8.4131944444444418e-01
21 38       3.3652777777777789e+00
21 39      -6.1698379629629647e+00
21 46      -4.2067361111111117e+00
21 47      -1.6826944444444443e+01
21 48       2.0472858796296290e+01
21 49       0.0000000000000000e+00
21 50      -6.7307777777777773e+01
21 51       8.0208726851851864e+01
21 52       4.2067361111111108e+00
21 53      -1.6826944444444447e+01
21 54       2.0472858796296293e+01
21 61      -1.6826944444444443e+01
21 62       4.4408920985006262e-16
21 63       5.4968101851851856e+01
21 64      -6.6613381477509392e-16
21 65      -4.4408920985006262e-15
21 66       2.1314157407407410e+02
21 67       1.6826944444444440e+01
21 68      -2.2204460492503131e-15
21 69       5.4968101851851856e+01
21 76      -4.2067361111111117e+00
21 77       1.6826944444444443e+01
21 78       2.0472858796296290e+01
21 79      -9.9920072216264089e-16
21 80       6.7307777777777773e+01
21 81       8.0208726851851878e+01
21 82       4.2067361111111108e+00
21 83       1.6826944444444447e+01
21 84       2.0472858796296293e+01
22 22      -1.5929629629629625e+02
22 4       6.4503703703703676e+00
22 5       8.4134722222222180e+00
22 6       8.4131944444444451e-01
22 7       1.4022592592592590e+01
22 8       2.2204460492503131e-16
22 9       8.8817841970012523e-16
22 10       6.4503703703703694e+00
22 11      -8.4134722222222180e+00
22 12      -8.4131944444444473e-01
22 19      -2.8045185185185190e+01
22 20       2.2204460492503131e-16
22 21       3.3652777777777780e+00
22 23       3.5527136788005009e-15
22 24       3.5527136788005009e-15
22 25      -2.8045185185185201e+01
22 26       2.2204460492503131e-16
22 27      -3.3652777777777798e+00
22 34       6.4503703703703676e+00
22 35      -8.4134722222222180e+00
22 36       8.4131944444444429e-01
22 37       1.4022592592592591e+01
22 38      -1.5543122344752192e-15
22 39       0.0000000000000000e+00
22 40       6.4503703703703694e+00
22 41       8.4134722222222198e+00
22 42      -8.4131944444444517e-01
22 49       9.9560185185185155e+00
22 50       4.2067361111111108e+00
22 51      -4.2067361111111108e+00
22 52       3.3934629629629626e+01
22 53      -1.1102230246251565e-16
22 54       4.4408920985006262e-16
22 55       9.9560185185185226e+00
22 56      -4.2067361111111117e+00
22 57       4.2067361111111108e+00
22 64       1.2900740740740737e+01
22 65       1.1102230246251565e-16
22 66      -1.6826944444444443e+01
22 67       2.8045185185185197e+01
22 68       0.0000000000000000e+00
22 69      -1.5543122344752192e-15
22 70       1.2900740740740741e+01
22 71       2.2204460492503131e-16
22 72       1.6826944444444443e+01
22 79       9.9560185185185190e+00
22 80      -4.2067361111111108e+00
22 81      -4.2067361111111108e+00
22 82       3.3934629629629633e+01
22 83      -8.8817841970012523e-16
22 84      -1.1102230246251565e-15
22 85       9.9560185185185208e+00
22 86       4.2067361111111108e+00
22 87       4.2067361111111108e+00
23 23      -3.2756574074074086e+02
23 4       8.4134722222222198e+00
23 5       2.7484050925925924e+01
23 6       3.3652777777777789e+00
23 7       6.6613381477509392e-16
23 8       1.0657078703703705e+02
23 9       1.3461111111111117e+01
23 10      -8.4134722222222198e+00
23 11       2.7484050925925935e+01
23 12       3.3652777777777807e+00
23 19      -2.2204460492503131e-16
23 20      -7.8526018518518498e+01
23 21      -3.5527136788005009e-15
23 22       3.5527136788005009e-15
23 24       1.4210854715202004e-14
23 25      -2.2204460492503131e-16
23 26      -7.8526018518518526e+01
23 27      -3.5527136788005009e-15
23 34      -8.4134722222222162e+00
23 35       2.7484050925925928e+01
23 36      -3.3652777777777780e+00
23 37      -1.5543122344752192e-15
23 38       1.0657078703703705e+02
23 39      -1.3461111111111112e+01
23 40       8.4134722222222180e+00
23 41       2.7484050925925935e+01
23 42      -3.3652777777777794e+00
23 49       4.2067361111111108e+00
23 50       2.0472858796296293e+01
23 51      -1.6826944444444443e+01
23 52       2.2204460492503131e-16
23 53       8.0208726851851878e+01
23 54      -6.7307777777777773e+01
23 55      -4.2067361111111108e+00
23 56       2.0472858796296300e+01
23 57      -1.6826944444444447e+01
23 64      -4.4408920985006262e-16
23 65      -1.2339675925925926e+01
23 66       8.8817841970012523e-16
23 67      -8.8817841970012523e-16
23 68      -5.6089537037037033e+01
23 69      -5.3290705182007514e-15
23 70       1.1102230246251565e-16
23 71      -1.2339675925925931e+01
23 72      -1.7763568394002505e-15
23 79      -4.2067361111111108e+00
23 80       2.0472858796296297e+01
23 81       1.6826944444444440e+01
23 82      -8.8817841970012523e-16
23 83       8.0208726851851878e+01
23 84       6.7307777777777773e+01
23 85       4.2067361111111108e+00
23 86       2.0472858796296300e+01
23 87       1.6826944444444450e+01
24 24      -3.2756574074074069e+02
24 4      -8.4131944444444473e-01
24 5      -3.3652777777777780e+00
24 6      -6.1698379629629647e+00
24 7       8.8817841970012523e-16
24 8      -1.3461111111111112e+01
24 9      -2.8044768518518520e+01
24 10       8.4131944444444462e-01
24 11      -3.3652777777777798e+00
24 12      -6.1698379629629656e+00
24 19      -3.3652777777777780e+00
24 20      -3.5527136788005009e-15
24 21      -7.8526018518518526e+01
24 22       3.5527136788005009e-15
24 23       1.4210854715202004e-14
24 25       3.3652777777777780e+00
24 26      -3.5527136788005009e-15
24 27      -7.8526018518518555e+01
24 34      -8.4131944444444495e-01
24 35       3.3652777777777780e+00
24 36      -6.1698379629629638e+00
24 37       8.8817841970012523e-16
24 38       1.3461111111111117e+01
24 39      -2.8044768518518520e+01
24 40       8.4131944444444429e-01
24 41       3.3652777777777798e+00
24 42      -6.1698379629629665e+00
24 49      -4.2067361111111117e+00
24 50      -1.6826944444444447e+01
24 51       2.0472858796296293e+01
24 52       3.3306690738754696e-16
24 53      -6.7307777777777773e+01
24 54       8.0208726851851878e+01
24 55       4.2067361111111099e+00
24 56      -1.6826944444444450e+01
24 57       2.0472858796296300e+01
24 64      -1.6826944444444443e+01
24 65      -1.3322676295501878e-15
24 66       5.4968101851851856e+01
24 67       0.0000000000000000e+00
24 68      -4.4408920985006262e-15
24 69       2.1314157407407413e+02
24 70       1.6826944444444440e+01
24 71      -2.6645352591003757e-15
24 72       5.4968101851851863e+01
24 79      -4.2067361111111117e+00
24 80       1.6826944444444447e+01
24 81       2.0472858796296297e+01
24 82      -9.9920072216264089e-16
24 83       6.7307777777777773e+01
24 84       8.0208726851851878e+01
24 85       4.2067361111111108e+00
24 86       1.6826944444444450e+01
24 87       2.0472858796296308e+01
25 25      -1.5929629629629625e+02
25 7       6.4503703703703676e+00
25 8       8.4134722222222180e+00
25 9       8.4131944444444462e-01
25 10       1.4022592592592593e+01
25 11       1.1102230246251565e-15
25 12       8.8817841970012523e-16
25 13       6.4503703703703703e+00
25 14      -8.4134722222222162e+00
25 15      -8.4131944444444473e-01
25 22      -2.8045185185185201e+01
25 23      -2.2204460492503131e-16
25 24       3.3652777777777780e+00
25 26       5.3290705182007514e-15
25 27       3.5527136788005009e-15
25 28      -2.8045185185185190e+01
25 29      -1.1102230246251565e-15
25 30      -3.3652777777777780e+00
25 37       6.4503703703703694e+00
25 38      -8.4134722222222180e+00
25 39       8.4131944444444429e-01
25 40       1.4022592592592595e+01
25 41      -1.7763568394002505e-15
25 42       0.0000000000000000e+00
25 43       6.4503703703703676e+00
25 44       8.4134722222222198e+00
25 45      -8.4131944444444473e-01
25 52       9.9560185185185190e+00
25 53       4.2067361111111099e+00
25 54      -4.2067361111111108e+00
25 55       3.3934629629629626e+01
25 56       3.3306690738754696e-16
25 57       0.0000000000000000e+00
25 58       9.9560185185185155e+00
25 59      -4.2067361111111108e+00
25 60       4.2067361111111108e+00
25 67       1.2900740740740739e+01
25 68       1.1102230246251565e-16
25 69      -1.6826944444444443e+01
25 70       2.8045185185185193e+01
25 71       0.0000000000000000e+00
25 72      -8.8817841970012523e-16
25 73       1.2900740740740737e+01
25 74      -2.2204460492503131e-16
25 75       1.6826944444444443e+01
25 82       9.9560185185185226e+00
25 83      -4.2067361111111108e+00
25 84      -4.2067361111111099e+00
25 85       3.3934629629629626e+01
25 86      -4.4408920985006262e-16
25 87      -1.1102230246251565e-15
25 88       9.9560185185185155e+00
25 89       4.2067361111111099e+00
25 90       4.2067361111111099e+00
26 26      -3.2756574074074081e+02
26 7       8.4134722222222198e+00
26 8       2.7484050925925935e+01
26 9       3.3652777777777807e+00
26 10      -8.8817841970012523e-16
26 11       1.0657078703703705e+02
26 12       1.3461111111111116e+01
26 13      -8.4134722222222180e+00
26 14       2.7484050925925928e+01
26 15       3.3652777777777780e+00
26 22       2.2204460492503131e-16
26 23      -7.8526018518518526e+01
26 24      -3.5527136788005009e-15
26 25       5.3290705182007514e-15
26 27      -7.1054273576010019e-15
26 28      -2.2204460492503131e-16
26 29      -7.8526018518518498e+01
26 30       0.0000000000000000e+00
26 37      -8.4134722222222180e+00
26 38       2.7484050925925935e+01
26 39      -3.3652777777777794e+00
26 40      -8.8817841970012523e-16
26 41       1.0657078703703706e+02
26 42      -1.3461111111111112e+01
26 43       8.4134722222222180e+00
26 44       2.7484050925925917e+01
26 45      -3.3652777777777763e+00
26 52       4.2067361111111108e+00
26 53       2.0472858796296300e+01
26 54      -1.6826944444444447e+01
26 55       0.0000000000000000e+00
26 56       8.0208726851851864e+01
26 57      -6.7307777777777773e+01
26 58      -4.2067361111111108e+00
26 59       2.0472858796296290e+01
26 60      -1.6826944444444440e+01
26 67       0.0000000000000000e+00
26 68      -1.2339675925925929e+01
26 69       0.0000000000000000e+00
26 70       0.0000000000000000e+00
26 71      -5.6089537037037033e+01
26 72      -3.5527136788005009e-15
26 73       3.3306690738754696e-16
26 74      -1.2339675925925921e+01
26 75      -2.6645352591003757e-15
26 82      -4.2067361111111108e+00
26 83       2.0472858796296300e+01
26 84       1.6826944444444450e+01
26 85      -3.3306690738754696e-16
26 86       8.0208726851851864e+01
26 87       6.7307777777777773e+01
26 88       4.2067361111111099e+00
26 89       2.0472858796296290e+01
26 90       1.6826944444444440e+01
27 27      -3.2756574074074075e+02
27 7      -8.4131944444444473e-01
27 8      -3.3652777777777789e+00
27 9      -6.1698379629629665e+00
27 10       8.8817841970012523e-16
27 11      -1.3461111111111114e+01
27 12      -2.8044768518518516e+01
27 13       8.4131944444444451e-01
27 14      -3.3652777777777771e+00
27 15      -6.1698379629629585e+00
27 22      -3.3652777777777798e+00
27 23      -3.5527136788005009e-15
27 24      -7.8526018518518555e+01
27 25       3.5527136788005009e-15
27 26      -7.1054273576010019e-15
27 28       3.3652777777777776e+00
27 29       0.0000000000000000e+00
27 30      -7.8526018518518526e+01
27 37      -8.4131944444444517e-01
27 38       3.3652777777777798e+00
27 39      -6.1698379629629656e+00
27 40       0.0000000000000000e+00
27 41       1.3461111111111117e+01
27 42      -2.8044768518518513e+01
27 43       8.4131944444444429e-01
27 44       3.3652777777777780e+00
27 45      -6.1698379629629612e+00
27 52      -4.2067361111111117e+00
27 53      -1.6826944444444450e+01
27 54       2.0472858796296300e+01
27 55       5.5511151231257827e-16
27 56      -6.7307777777777773e+01
27 57       8.0208726851851864e+01
27 58       4.2067361111111117e+00
27 59      -1.6826944444444440e+01
27 60       2.0472858796296290e+01
27 67      -1.6826944444444443e+01
27 68      -1.7763568394002505e-15
27 69       5.4968101851851863e+01
27 70       1.7763568394002505e-15
27 71      -5.3290705182007514e-15
27 72       2.1314157407407413e+02
27 73       1.6826944444444436e+01
27 74      -3.9968028886505635e-15
27 75       5.4968101851851841e+01
27 82      -4.2067361111111117e+00
27 83       1.6826944444444450e+01
27 84       2.0472858796296308e+01
27 85      -6.6613381477509392e-16
27 86       6.7307777777777773e+01
27 87       8.0208726851851850e+01
27 88       4.2067361111111108e+00
27 89       1.6826944444444440e+01
27 90       2.0472858796296290e+01
28 28      -7.9648148148148124e+01
28 10       6.4503703703703685e+00
28 11       8.4134722222222180e+00
28 12       8.4131944444444451e-01
28 13       7.0112962962962948e+00
28 14       1.6826388888888892e+00
28 15       4.2067361111111117e+00
28 25      -2.8045185185185190e+01
28 26      -2.2204460492503131e-16
28 27       3.3652777777777776e+00
28 29       0.0000000000000000e+00
28 30       1.6826944444444443e+01
28 40       6.4503703703703694e+00
28 41      -8.4134722222222180e+00
28 42       8.4131944444444429e-01
28 43       7.0112962962962948e+00
28 44      -1.6826388888888901e+00
28 45       4.2067361111111108e+00
28 55       9.9560185185185155e+00
28 56       4.2067361111111108e+00
28 57      -4.2067361111111108e+00
28 58       1.6967314814814813e+01
28 59       8.4131944444444462e-01
28 60      -8.4131944444444473e-01
28 70       1.2900740740740737e+01
28 71       0.0000000000000000e+00
28 72      -1.6826944444444443e+01
28 73       1.4022592592592591e+01
28 74       1.7763568394002505e-15
28 75      -3.3652777777777794e+00
28 85       9.9560185185185155e+00
28 86      -4.2067361111111108e+00
28 87      -4.2067361111111099e+00
28 88       1.6967314814814813e+01
28 89      -8.4131944444444473e-01
28 90      -8.4131944444444473e-01
28 376       0.0000000000000000e+00
28 377       0.0000000000000000e+00
28 378       0.0000000000000000e+00
28 379       0.0000000000000000e+00
28 380       0.0000000000000000e+00
28 381       0.0000000000000000e+00
28 379      -1.2564219907407407e+02
28 380       0.0000000000000000e+00
28 381       0.0000000000000000e+00
28 382       0.0000000000000000e+00
28 383       0.0000000000000000e+00
28 384       0.0000000000000000e+00
28 385       0.0000000000000000e+00
28 386       0.0000000000000000e+00
28 388       0.0000000000000000e+00
28 389       0.0000000000000000e+00
28 390       0.0000000000000000e+00
28 391       0.0000000000000000e+00
28 392       0.0000000000000000e+00
28 393       0.0000000000000000e+00
29 379      -1.2564219907407407e+02
29 380       0.0000000000000000e+00
29 381       0.0000000000000000e+00
29 382       0.0000000000000000e+00
29 383       0.0000000000000000e+00
29 384       0.0000000000000000e+00
29 385       0.0000000000000000e+00
29 386       0.0000000000000000e+00
29 388       0.0000000000000000e+00
29 389       0.0000000000000000e+00
29 390       0.0000000000000000e+00
29 391       0.0000000000000000e+00
29 392       0.0000000000000000e+00
29 393       0.0000000000000000e+00
29 41       0.0000000000000000e+00
29 42      -3.3652777777777771e+00
29 43       1.6826388888888888e+00
29 44       5.3285393518518518e+01
29 45      -6.7305555555555570e+00
29 55       4.2067361111111108e+00
29 56       2.0472858796296290e+01
29 57      -1.6826944444444440e+01
29 58      -8.4131944444444429e-01
29 59       4.0104363425925925e+01
29 60      -3.3653888888888886e+01
29 70      -4.4408920985006262e-16
29 71      -1.2339675925925921e+01
29 72      -8.8817841970012523e-16
29 73       8.8817841970012523e-16
29 74      -2.8044768518518509e+01
29 75       2.6645352591003757e-15
29 85      -4.2067361111111108e+00
29 86       2.0472858796296290e+01
29 87       1.6826944444444440e+01
29 88       8.4131944444444429e-01
29 89       4.0104363425925925e+01
29 90       3.3653888888888893e+01
29 376       0.0000000000000000e+00
29 377       0.0000000000000000e+00
29 378       0.0000000000000000e+00
29 379       0.0000000000000000e+00
29 380       0.0000000000000000e+00
29 379      -2.7259680555555548e+02
29 381       0.0000000000000000e+00
29 379       0.0000000000000000e+00
29 380       0.0000000000000000e+00
29 381       0.0000000000000000e+00
29 382       0.0000000000000000e+00
29 383       0.0000000000000000e+00
29 384       0.0000000000000000e+00
29 385       0.0000000000000000e+00
29 386       0.0000000000000000e+00
29 388       0.0000000000000000e+00
29 389       0.0000000000000000e+00
29 390       0.0000000000000000e+00
29 391       0.0000000000000000e+00
29 392       0.0000000000000000e+00
29 393       0.0000000000000000e+00
30 379      -2.7259680555555548e+02
30 381       0.0000000000000000e+00
30 379       0.0000000000000000e+00
30 380       0.0000000000000000e+00
30 381       0.0000000000000000e+00
30 382       0.0000000000000000e+00
30 383       0.0000000000000000e+00
30 384       0.0000000000000000e+00
30 385       0.0000000000000000e+00
30 386       0.0000000000000000e+00
30 388       0.0000000000000000e+00
30 389       0.0000000000000000e+00
30 390       0.0000000000000000e+00
30 391       0.0000000000000000e+00
30 392       0.0000000000000000e+00
30 393       0.0000000000000000e+00
30 42       0.0000000000000000e+00
30 43       0.0000000000000000e+00
30 44       0.0000000000000000e+00
30 45       0.0000000000000000e+00
30 55       0.0000000000000000e+00
30 56       0.0000000000000000e+00
30 57       0.0000000000000000e+00
30 58       0.0000000000000000e+00
30 59       0.0000000000000000e+00
30 60       0.0000000000000000e+00
30 70       0.0000000000000000e+00
30 71       0.0000000000000000e+00
30 72       5.4968101851851841e+01
30 73       3.3652777777777780e+00
30 74      -2.6645352591003757e-15
30 75       1.0657078703703704e+02
30 85      -4.2067361111111117e+00
30 86       1.6826944444444440e+01
30 87       2.0472858796296290e+01
30 88       8.4131944444444418e-01
30 89       3.3653888888888886e+01
30 90       4.0104363425925925e+01
30 376       0.0000000000000000e+00
30 377       0.0000000000000000e+00
30 378       0.0000000000000000e+00
30 380       0.0000000000000000e+00
30 381       3.0864197530885495e-02
30 382       2.4691358024691377e-02
30 383       0.0000000000000000e+00
30 384       0.0000000000000000e+00
30 385       0.0000000000000000e+00
30 386       0.0000000000000000e+00
30 387       0.0000000000000000e+00
30 388       3.8580246913580210e-02
30 389       0.0000000000000000e+00
30 390       0.0000000000000000e+00
30 391       3.0864197530864189e-02
30 392       0.0000000000000000e+00
30 393       0.0000000000000000e+00
31 381       3.0864197530885495e-02
31 382       2.4691358024691377e-02
31 383       0.0000000000000000e+00
31 384       0.0000000000000000e+00
31 385       0.0000000000000000e+00
31 386       0.0000000000000000e+00
31 387       0.0000000000000000e+00
31 388       3.8580246913580210e-02
31 389       0.0000000000000000e+00
31 390       0.0000000000000000e+00
31 391       3.0864197530864189e-02
31 392       0.0000000000000000e+00
31 393       0.0000000000000000e+00
31 62       0.0000000000000000e+00
31 63       0.0000000000000000e+00
31 64       0.0000000000000000e+00
31 65       0.0000000000000000e+00
31 66       0.0000000000000000e+00
31 76       0.0000000000000000e+00
31 77       0.0000000000000000e+00
31 78       0.0000000000000000e+00
31 79       0.0000000000000000e+00
31 80       0.0000000000000000e+00
31 81       0.0000000000000000e+00
32 32      -8.1891435185185216e+01
32 16       1.6826388888888886e+00
32 17       5.3285393518518525e+01
32 18       6.7305555555555570e+00
32 19      -8.4134722222222180e+00
32 20       2.7484050925925935e+01
32 21       3.3652777777777780e+00
32 31       8.4134722222222216e+00
32 33       3.3653888888888879e+01
32 34      -1.6826388888888884e+00
32 35      -3.9263009259259249e+01
32 36       1.6826944444444443e+01
32 61       8.4131944444444451e-01
32 62       4.0104363425925925e+01
32 63      -3.3653888888888879e+01
32 64      -4.2067361111111108e+00
32 65       2.0472858796296293e+01
32 66      -1.6826944444444440e+01
32 76       4.2067361111111108e+00
32 77      -1.4022384259259253e+01
32 78      -6.7305555555555552e+00
32 79      -8.4131944444444406e-01
32 80      -6.1698379629629621e+00
32 81      -3.3652777777777780e+00
33 33      -8.1891435185185173e+01
33 16      -4.3317361111111126e+00
33 17      -6.7305555555555543e+00
33 18      -1.4022384259259253e+01
33 19       8.4131944444444429e-01
33 20      -3.3652777777777780e+00
33 21      -6.1698379629629621e+00
33 31      -8.4134722222222216e+00
33 32       3.3653888888888879e+01
33 34       1.6826388888888886e+00
33 35       1.6826944444444443e+01
33 36      -3.9263009259259263e+01
33 61      -8.4131944444444406e-01
33 62      -3.3653888888888886e+01
33 63       4.0104363425925932e+01
33 64       4.2067361111111108e+00
33 65      -1.6826944444444447e+01
33 66       2.0472858796296290e+01
33 76      -1.6826388888888895e+00
33 77       6.7305555555555570e+00
33 78       5.3285393518518532e+01
33 79       8.4134722222222216e+00
33 80       3.3652777777777780e+00
33 81       2.7484050925925928e+01
34 34      -7.9648148148148124e+01
34 16       6.3253703703703659e+00
34 17       8.4134722222222180e+00
34 18       8.4131944444444418e-01
34 19       1.4022592592592590e+01
34 20      -1.1102230246251565e-15
34 21       0.0000000000000000e+00
34 22       6.4503703703703676e+00
34 23      -8.4134722222222162e+00
34 24      -8.4131944444444495e-01
34 31      -1.4022592592592595e+01
34 32      -1.6826388888888884e+00
34 33       1.6826388888888886e+00
34 35       1.7763568394002505e-15
34 36       0.0000000000000000e+00
34 37      -1.4022592592592595e+01
34 38       1.6826388888888897e+00
34 39      -1.6826388888888892e+00
34 61       9.9560185185185155e+00
34 62       4.2067361111111108e+00
34 63      -4.2067361111111099e+00
34 64       3.3934629629629626e+01
34 65      -3.3306690738754696e-16
34 66       1.1102230246251565e-15
34 67       9.9560185185185190e+00
34 68      -4.2067361111111108e+00
34 69       4.2067361111111108e+00
34 76       6.4503703703703694e+00
34 77      -8.4131944444444406e-01
34 78      -8.4134722222222216e+00
34 79       1.4022592592592595e+01
34 80       0.0000000000000000e+00
34 81      -2.2204460492503131e-16
34 82       6.4503703703703703e+00
34 83       8.4131944444444462e-01
34 84       8.4134722222222216e+00
35 35      -1.6378287037037040e+02
35 16       8.4134722222222198e+00
35 17       2.7484050925925928e+01
35 18       3.3652777777777780e+00
35 19      -1.9984014443252818e-15
35 20       1.0657078703703704e+02
35 21       1.3461111111111116e+01
35 22      -8.4134722222222180e+00
35 23       2.7484050925925928e+01
35 24       3.3652777777777780e+00
35 31       1.6826388888888897e+00
35 32      -3.9263009259259249e+01
35 33       1.6826944444444443e+01
35 34       1.7763568394002505e-15
35 36       6.7307777777777773e+01
35 37      -1.6826388888888888e+00
35 38      -3.9263009259259242e+01
35 39       1.6826944444444443e+01
35 61       4.2067361111111108e+00
35 62       2.0472858796296290e+01
35 63      -1.6826944444444440e+01
35 64      -2.2204460492503131e-16
35 65       8.0208726851851864e+01
35 66      -6.7307777777777773e+01
35 67      -4.2067361111111108e+00
35 68       2.0472858796296297e+01
35 69      -1.6826944444444443e+01
35 76       8.4131944444444462e-01
35 77      -6.1698379629629621e+00
35 78      -3.3652777777777771e+00
35 79       0.0000000000000000e+00
35 80      -2.8044768518518509e+01
35 81      -1.3461111111111112e+01
35 82      -8.4131944444444406e-01
35 83      -6.1698379629629629e+00
35 84      -3.3652777777777780e+00
36 36      -1.6378287037037035e+02
36 16      -8.4131944444444473e-01
36 17      -3.3652777777777771e+00
36 18      -6.1698379629629621e+00
36 19       0.0000000000000000e+00
36 20      -1.3461111111111112e+01
36 21      -2.8044768518518513e+01
36 22       8.4131944444444429e-01
36 23      -3.3652777777777780e+00
36 24      -6.1698379629629638e+00
36 31      -1.6826388888888892e+00
36 32       1.6826944444444443e+01
36 33      -3.9263009259259263e+01
36 34       0.0000000000000000e+00
36 35       6.7307777777777773e+01
36 37       1.6826388888888886e+00
36 38       1.6826944444444443e+01
36 39      -3.9263009259259263e+01
36 61      -4.2067361111111108e+00
36 62      -1.6826944444444447e+01
36 63       2.0472858796296290e+01
36 64       7.7715611723760958e-16
36 65      -6.7307777777777773e+01
36 66       8.0208726851851878e+01
36 67       4.2067361111111117e+00
36 68      -1.6826944444444447e+01
36 69       2.0472858796296297e+01
36 76      -8.4134722222222234e+00
36 77       3.3652777777777780e+00
36 78       2.7484050925925928e+01
36 79      -2.2204460492503131e-16
36 80       1.3461111111111116e+01
36 81       1.0657078703703705e+02
36 82       8.4134722222222216e+00
36 83       3.3652777777777789e+00
36 84       2.7484050925925924e+01
37 37      -7.9648148148148124e+01
37 19       6.4503703703703676e+00
37 20       8.4134722222222180e+00
37 21       8.4131944444444418e-01
37 22       1.4022592592592591e+01
37 23      -1.5543122344752192e-15
37 24       8.8817841970012523e-16
37 25       6.4503703703703694e+00
37 26      -8.4134722222222180e+00
37 27      -8.4131944444444517e-01
37 34      -1.4022592592592595e+01
37 35      -1.6826388888888888e+00
37 36       1.6826388888888886e+00
37 38       3.5527136788005009e-15
37 39       0.0000000000000000e+00
37 40      -1.4022592592592602e+01
37 41       1.6826388888888903e+00
37 42      -1.6826388888888899e+00
37 64       9.9560185185185155e+00
37 65       4.2067361111111108e+00
37 66      -4.2067361111111099e+00
37 67       3.3934629629629633e+01
37 68      -2.2204460492503131e-16
37 69       1.1102230246251565e-15
37 70       9.9560185185185226e+00
37 71      -4.2067361111111117e+00
37 72       4.2067361111111117e+00
37 79       6.4503703703703694e+00
37 80      -8.4131944444444406e-01
37 81      -8.4134722222222216e+00
37 82       1.4022592592592598e+01
37 83       0.0000000000000000e+00
37 84       2.2204460492503131e-16
37 85       6.4503703703703694e+00
37 86       8.4131944444444484e-01
37 87       8.4134722222222234e+00
38 38      -1.6378287037037043e+02
38 19       8.5384722222222198e+00
38 20       2.7484050925925924e+01
38 21       3.3652777777777789e+00
38 22      -1.5543122344752192e-15
38 23       1.0657078703703705e+02
38 24       1.3461111111111117e+01
38 25      -8.4134722222222180e+00
38 26       2.7484050925925935e+01
38 27       3.3652777777777798e+00
38 34       1.6826388888888897e+00
38 35      -3.9263009259259242e+01
38 36       1.6826944444444443e+01
38 37       3.5527136788005009e-15
38 39       6.7307777777777773e+01
38 40      -1.6826388888888888e+00
38 41      -3.9263009259259256e+01
38 42       1.6826944444444447e+01
38 64       4.2067361111111108e+00
38 65       2.0472858796296293e+01
38 66      -1.6826944444444443e+01
38 67      -2.2204460492503131e-16
38 68       8.0208726851851878e+01
38 69      -6.7307777777777773e+01
38 70      -4.2067361111111117e+00
38 71       2.0472858796296300e+01
38 72      -1.6826944444444447e+01
38 79       8.4131944444444451e-01
38 80      -6.1698379629629621e+00
38 81      -3.3652777777777771e+00
38 82      -8.8817841970012523e-16
38 83      -2.8044768518518516e+01
38 84      -1.3461111111111112e+01
38 85      -8.4131944444444429e-01
38 86      -6.1698379629629656e+00
38 87      -3.3652777777777789e+00
39 39      -1.6378287037037035e+02
39 19      -9.6631944444444484e-01
39 20      -3.3652777777777780e+00
39 21      -6.1698379629629647e+00
39 22       0.0000000000000000e+00
39 23      -1.3461111111111112e+01
39 24      -2.8044768518518520e+01
39 25       8.4131944444444429e-01
39 26      -3.3652777777777794e+00
39 27      -6.1698379629629656e+00
39 34      -1.6826388888888892e+00
39 35       1.6826944444444443e+01
39 36      -3.9263009259259263e+01
39 37       0.0000000000000000e+00
39 38       6.7307777777777773e+01
39 40       1.6826388888888886e+00
39 41       1.6826944444444450e+01
39 42      -3.9263009259259277e+01
39 64      -4.2067361111111108e+00
39 65      -1.6826944444444447e+01
39 66       2.0472858796296293e+01
39 67       8.8817841970012523e-16
39 68      -6.7307777777777801e+01
39 69       8.0208726851851878e+01
39 70       4.2067361111111117e+00
39 71      -1.6826944444444450e+01
39 72       2.0472858796296308e+01
39 79      -8.4134722222222234e+00
39 80       3.3652777777777789e+00
39 81       2.7484050925925924e+01
39 82      -2.2204460492503131e-16
39 83       1.3461111111111117e+01
39 84       1.0657078703703706e+02
39 85       8.4134722222222216e+00
39 86       3.3652777777777785e+00
39 87       2.7484050925925928e+01
40 40      -7.9648148148148124e+01
40 22       6.3253703703703694e+00
40 23       8.4134722222222180e+00
40 24       8.4131944444444429e-01
40 25       1.4022592592592595e+01
40 26      -8.8817841970012523e-16
40 27       0.0000000000000000e+00
40 28       6.4503703703703694e+00
40 29      -8.4134722222222162e+00
40 30      -8.4131944444444495e-01
40 37      -1.4022592592592602e+01
40 38      -1.6826388888888888e+00
40 39       1.6826388888888886e+00
40 41       1.7763568394002505e-15
40 42       0.0000000000000000e+00
40 43      -1.4022592592592593e+01
40 44       1.6826388888888890e+00
40 45      -1.6826388888888895e+00
40 67       9.9560185185185208e+00
40 68       4.2067361111111099e+00
40 69      -4.2067361111111108e+00
40 70       3.3934629629629626e+01
40 71      -3.3306690738754696e-16
40 72       8.8817841970012523e-16
40 73       9.9560185185185155e+00
40 74      -4.2067361111111108e+00
40 75       4.2067361111111108e+00
40 82       6.4503703703703694e+00
40 83      -8.4131944444444406e-01
40 84      -8.4134722222222216e+00
40 85       1.4022592592592598e+01
40 86       8.8817841970012523e-16
40 87       4.4408920985006262e-16
40 88       6.4503703703703676e+00
40 89       8.4131944444444473e-01
40 90       8.4134722222222216e+00
41 41      -1.6378287037037046e+02
41 22       8.5384722222222234e+00
41 23       2.7484050925925935e+01
41 24       3.3652777777777798e+00
41 25      -1.7763568394002505e-15
41 26       1.0657078703703706e+02
41 27       1.3461111111111117e+01
41 28      -8.4134722222222180e+00
41 29       2.7484050925925928e+01
41 30       3.3652777777777780e+00
41 37       1.6826388888888903e+00
41 38      -3.9263009259259256e+01
41 39       1.6826944444444450e+01
41 40       1.7763568394002505e-15
41 42       6.7307777777777773e+01
41 43      -1.6826388888888888e+00
41 44      -3.9263009259259249e+01
41 45       1.6826944444444443e+01
41 67       4.2067361111111108e+00
41 68       2.0472858796296300e+01
41 69      -1.6826944444444447e+01
41 70      -4.4408920985006262e-16
41 71       8.0208726851851864e+01
41 72      -6.7307777777777773e+01
41 73      -4.2067361111111108e+00
41 74       2.0472858796296290e+01
41 75      -1.6826944444444440e+01
41 82       8.4131944444444495e-01
41 83      -6.1698379629629656e+00
41 84      -3.3652777777777789e+00
41 85       0.0000000000000000e+00
41 86      -2.8044768518518513e+01
41 87      -1.3461111111111114e+01
41 88      -8.4131944444444440e-01
41 89      -6.1698379629629621e+00
41 90      -3.3652777777777798e+00
42 42      -1.6378287037037035e+02
42 22      -9.6631944444444529e-01
42 23      -3.3652777777777794e+00
42 24      -6.1698379629629665e+00
42 25       0.0000000000000000e+00
42 26      -1.3461111111111112e+01
42 27      -2.8044768518518513e+01
42 28       8.4131944444444429e-01
42 29      -3.3652777777777771e+00
42 30      -6.1698379629629594e+00
42 37      -1.6826388888888899e+00
42 38       1.6826944444444447e+01
42 39      -3.9263009259259277e+01
42 40       0.0000000000000000e+00
42 41       6.7307777777777773e+01
42 43       1.6826388888888888e+00
42 44       1.6826944444444443e+01
42 45      -3.9263009259259263e+01
42 67      -4.2067361111111117e+00
42 68      -1.6826944444444450e+01
42 69       2.0472858796296308e+01
42 70       7.7715611723760958e-16
42 71      -6.7307777777777773e+01
42 72       8.0208726851851850e+01
42 73       4.2067361111111108e+00
42 74      -1.6826944444444443e+01
42 75       2.0472858796296290e+01
42 82      -8.4134722222222234e+00
42 83       3.3652777777777794e+00
42 84       2.7484050925925928e+01
42 85       4.4408920985006262e-16
42 86       1.3461111111111114e+01
42 87       1.0657078703703706e+02
42 88       8.4134722222222216e+00
42 89       3.3652777777777754e+00
42 90       2.7484050925925921e+01
43 43      -3.9824074074074055e+01
43 25       6.3253703703703668e+00
43 26       8.4134722222222180e+00
43 27       8.4131944444444429e-01
43 28       7.0112962962962948e+00
43 29       1.6826388888888888e+00
43 30       4.2067361111111108e+00
43 40      -1.4022592592592593e+01
43 41      -1.6826388888888888e+00
43 42       1.6826388888888888e+00
43 44      -8.4134722222222180e+00
43 45       8.4134722222222216e+00
43 70       9.9560185185185155e+00
43 71       4.2067361111111108e+00
43 72      -4.2067361111111099e+00
43 73       1.6967314814814813e+01
43 74       8.4131944444444440e-01
43 75      -8.4131944444444384e-01
43 85       6.4503703703703676e+00
43 86      -8.4131944444444451e-01
43 87      -8.4134722222222216e+00
43 88       7.0112962962962957e+00
43 89      -4.2067361111111099e+00
43 90      -1.6826388888888890e+00
43 379       0.0000000000000000e+00
43 380       0.0000000000000000e+00
43 381       0.0000000000000000e+00
43 382       6.8429212962962964e+01
43 383       0.0000000000000000e+00
43 384       0.0000000000000000e+00
43 388       0.0000000000000000e+00
43 389       0.0000000000000000e+00
43 390       0.0000000000000000e+00
43 391       0.0000000000000000e+00
43 392       0.0000000000000000e+00
43 393       0.0000000000000000e+00
44 44      -8.1891435185185173e+01
44 382       6.8429212962962964e+01
44 383       0.0000000000000000e+00
44 384       0.0000000000000000e+00
44 388       0.0000000000000000e+00
44 389       0.0000000000000000e+00
44 390       0.0000000000000000e+00
44 391       0.0000000000000000e+00
44 392       0.0000000000000000e+00
44 393       0.0000000000000000e+00
44 43       0.0000000000000000e+00
44 45       3.3653888888888886e+01
44 70       4.2067361111111108e+00
44 71       2.0472858796296290e+01
44 72      -1.6826944444444440e+01
44 73      -8.4131944444444473e-01
44 74       4.0104363425925925e+01
44 75      -3.3653888888888886e+01
44 85       8.4131944444444429e-01
44 86      -6.1698379629629621e+00
44 87      -3.3652777777777789e+00
44 88      -4.2067361111111108e+00
44 89      -1.4022384259259255e+01
44 90      -6.7305555555555596e+00
44 379       0.0000000000000000e+00
44 380       0.0000000000000000e+00
44 381       0.0000000000000000e+00
44 382      -4.2627870370370360e+01
44 383       0.0000000000000000e+00
44 384       0.0000000000000000e+00
44 388       0.0000000000000000e+00
44 389       0.0000000000000000e+00
44 390       0.0000000000000000e+00
44 391       0.0000000000000000e+00
44 392       0.0000000000000000e+00
44 393       0.0000000000000000e+00
45 45      -8.1891435185185145e+01
45 382      -4.2627870370370360e+01
45 383       0.0000000000000000e+00
45 384       0.0000000000000000e+00
45 388       0.0000000000000000e+00
45 389       0.0000000000000000e+00
45 390       0.0000000000000000e+00
45 391       0.0000000000000000e+00
45 392       0.0000000000000000e+00
45 393       0.0000000000000000e+00
45 43       0.0000000000000000e+00
45 44       3.3653888888888886e+01
45 70      -4.2067361111111108e+00
45 71      -1.6826944444444443e+01
45 72       2.0472858796296290e+01
45 73       8.4131944444444517e-01
45 74      -3.3653888888888886e+01
45 75       4.0104363425925925e+01
45 85      -8.4134722222222216e+00
45 86       3.3652777777777763e+00
45 87       2.7484050925925921e+01
45 88       1.6826388888888890e+00
45 89       6.7305555555555507e+00
45 90       5.3285393518518511e+01
45 379       0.0000000000000000e+00
45 380       0.0000000000000000e+00
45 381       0.0000000000000000e+00
45 382       2.5240833333333331e+01
45 383       0.0000000000000000e+00
45 384       0.0000000000000000e+00
45 388       0.0000000000000000e+00
45 389       0.0000000000000000e+00
45 390       0.0000000000000000e+00
45 391       0.0000000000000000e+00
45 392       0.0000000000000000e+00
45 393       0.0000000000000000e+00
46 46      -7.9648148148148096e+01
46 382       2.5240833333333331e+01
46 383       0.0000000000000000e+00
46 384       0.0000000000000000e+00
46 388       0.0000000000000000e+00
46 389       0.0000000000000000e+00
46 390       0.0000000000000000e+00
46 391       0.0000000000000000e+00
46 392       0.0000000000000000e+00
46 393       0.0000000000000000e+00
46 19       0.0000000000000000e+00
46 20       4.2067361111111108e+00
46 21      -4.2067361111111117e+00
46 47      -1.6826944444444436e+01
46 48       1.7763568394002505e-15
46 49      -2.8045185185185183e+01
46 50      -3.3652777777777789e+00
46 51       0.0000000000000000e+00
46 61       1.4022592592592595e+01
46 62       3.3652777777777794e+00
46 63      -8.8817841970012523e-16
46 64       1.2900740740740737e+01
46 65       1.6826944444444443e+01
46 66       2.2204460492503131e-16
46 91       7.0112962962962984e+00
46 92      -4.2067361111111090e+00
46 93       1.6826388888888899e+00
46 94       6.4503703703703703e+00
46 95      -8.4131944444444406e-01
46 96       8.4134722222222198e+00
46 106       1.6967314814814817e+01
46 107       8.4131944444444429e-01
46 108       8.4131944444444473e-01
46 109       9.9560185185185155e+00
46 110       4.2067361111111108e+00
46 111       4.2067361111111108e+00
47 47      -1.6378287037037038e+02
47 1      -4.0817361111111126e+00
47 2      -1.4022384259259253e+01
47 3      -6.7305555555555543e+00
47 4       8.4131944444444440e-01
47 5      -6.1698379629629621e+00
47 6      -3.3652777777777771e+00
47 16      -8.4131944444444429e-01
47 17       4.0104363425925925e+01
47 18      -3.3653888888888879e+01
47 19       4.2067361111111108e+00
47 20       2.0472858796296290e+01
47 21      -1.6826944444444443e+01
47 46      -1.6826944444444436e+01
47 48       0.0000000000000000e+00
47 49       3.3652777777777776e+00
47 50      -7.8526018518518526e+01
47 51      -3.5527136788005009e-15
47 61      -3.3652777777777780e+00
47 62       1.0657078703703704e+02
47 63       0.0000000000000000e+00
47 64       1.6826944444444443e+01
47 65       5.4968101851851848e+01
47 66      -8.8817841970012523e-16
47 91      -4.2067361111111099e+00
47 92      -1.4022384259259251e+01
47 93       6.7305555555555570e+00
47 94       8.4131944444444484e-01
47 95      -6.1698379629629621e+00
47 96       3.3652777777777798e+00
47 106      -8.4131944444444451e-01
47 107       4.0104363425925939e+01
47 108       3.3653888888888879e+01
47 109       4.2067361111111108e+00
47 110       2.0472858796296290e+01
47 111       1.6826944444444443e+01
48 48      -1.6378287037037035e+02
48 1       1.5576388888888892e+00
48 2       6.7305555555555570e+00
48 3       5.3285393518518525e+01
48 4      -8.4134722222222198e+00
48 5       3.3652777777777798e+00
48 6       2.7484050925925931e+01
48 16       8.4131944444444473e-01
48 17      -3.3653888888888886e+01
48 18       4.0104363425925925e+01
48 19      -4.2067361111111108e+00
48 20      -1.6826944444444443e+01
48 21       2.0472858796296290e+01
48 46       1.7763568394002505e-15
48 47       0.0000000000000000e+00
48 49       8.8817841970012523e-16
48 50      -3.5527136788005009e-15
48 51      -7.8526018518518512e+01
48 61       0.0000000000000000e+00
48 62       1.7763568394002505e-15
48 63      -2.8044768518518516e+01
48 64       5.5511151231257827e-16
48 65       0.0000000000000000e+00
48 66      -1.2339675925925928e+01
48 91      -1.6826388888888881e+00
48 92      -6.7305555555555525e+00
48 93       5.3285393518518525e+01
48 94       8.4134722222222180e+00
48 95      -3.3652777777777771e+00
48 96       2.7484050925925928e+01
48 106      -8.4131944444444429e-01
48 107       3.3653888888888879e+01
48 108       4.0104363425925925e+01
48 109       4.2067361111111108e+00
48 110       1.6826944444444443e+01
48 111       2.0472858796296290e+01
49 49      -1.5929629629629622e+02
49 1       6.3253703703703703e+00
49 2       8.4131944444444440e-01
49 3       8.4134722222222180e+00
49 4       1.4022592592592595e+01
49 5       0.0000000000000000e+00
49 6       2.2204460492503131e-16
49 7       6.4503703703703685e+00
49 8      -8.4131944444444473e-01
49 9      -8.4134722222222180e+00
49 16       9.9560185185185155e+00
49 17      -4.2067361111111108e+00
49 18       4.2067361111111117e+00
49 19       3.3934629629629626e+01
49 20       0.0000000000000000e+00
49 21       0.0000000000000000e+00
49 22       9.9560185185185155e+00
49 23       4.2067361111111108e+00
49 24      -4.2067361111111117e+00
49 46      -2.8045185185185183e+01
49 47       3.3652777777777776e+00
49 48       8.8817841970012523e-16
49 50       1.7763568394002505e-15
49 51       1.7763568394002505e-15
49 52      -2.8045185185185186e+01
49 53      -3.3652777777777789e+00
49 54       6.6613381477509392e-16
49 61       1.2900740740740739e+01
49 62      -1.6826944444444440e+01
49 63      -1.1102230246251565e-16
49 64       2.8045185185185186e+01
49 65       2.2204460492503131e-16
49 66      -8.8817841970012523e-16
49 67       1.2900740740740737e+01
49 68       1.6826944444444443e+01
49 69       3.3306690738754696e-16
49 91       6.4503703703703694e+00
49 92       8.4131944444444451e-01
49 93      -8.4134722222222198e+00
49 94       1.4022592592592595e+01
49 95       8.8817841970012523e-16
49 96       6.6613381477509392e-16
49 97       6.4503703703703703e+00
49 98      -8.4131944444444384e-01
49 99       8.4134722222222198e+00
49 106       9.9560185185185190e+00
49 107      -4.2067361111111108e+00
49 108      -4.2067361111111108e+00
49 109       3.3934629629629626e+01
49 110       2.2204460492503131e-16
49 111       4.4408920985006262e-16
49 112       9.9560185185185155e+00
49 113       4.2067361111111108e+00
49 114       4.2067361111111108e+00
50 50      -3.2756574074074075e+02
50 1      -8.4131944444444451e-01
50 2      -6.1698379629629612e+00
50 3      -3.3652777777777771e+00
50 4      -8.8817841970012523e-16
50 5      -2.8044768518518509e+01
50 6      -1.3461111111111114e+01
50 7       8.4131944444444440e-01
50 8      -6.1698379629629629e+00
50 9      -3.3652777777777798e+00
50 16      -4.2067361111111108e+00
50 17       2.0472858796296290e+01
50 18      -1.6826944444444443e+01
50 19       1.1102230246251565e-16
50 20       8.0208726851851864e+01
50 21      -6.7307777777777773e+01
50 22       4.2067361111111108e+00
50 23       2.0472858796296293e+01
50 24      -1.6826944444444447e+01
50 46      -3.3652777777777789e+00
50 47      -7.8526018518518526e+01
50 48      -3.5527136788005009e-15
50 49       1.7763568394002505e-15
50 51       2.1316282072803006e-14
50 52       3.3652777777777776e+00
50 53      -7.8526018518518512e+01
50 54      -3.5527136788005009e-15
50 61      -1.6826944444444436e+01
50 62       5.4968101851851856e+01
50 63      -8.8817841970012523e-16
50 64      -2.2204460492503131e-16
50 65       2.1314157407407407e+02
50 66      -8.8817841970012523e-16
50 67       1.6826944444444443e+01
50 68       5.4968101851851856e+01
50 69      -4.4408920985006262e-16
50 91      -8.4131944444444451e-01
50 92      -6.1698379629629621e+00
50 93       3.3652777777777798e+00
50 94       1.7763568394002505e-15
50 95      -2.8044768518518509e+01
50 96       1.3461111111111116e+01
50 97       8.4131944444444529e-01
50 98      -6.1698379629629629e+00
50 99       3.3652777777777780e+00
50 106      -4.2067361111111117e+00
50 107       2.0472858796296290e+01
50 108       1.6826944444444443e+01
50 109      -2.2204460492503131e-16
50 110       8.0208726851851878e+01
50 111       6.7307777777777773e+01
50 112       4.2067361111111108e+00
50 113       2.0472858796296293e+01
50 114       1.6826944444444440e+01
51 51      -3.2756574074074075e+02
51 1       8.4134722222222198e+00
51 2       3.3652777777777798e+00
51 3       2.7484050925925931e+01
51 4      -2.2204460492503131e-16
51 5       1.3461111111111116e+01
51 6       1.0657078703703704e+02
51 7      -8.4134722222222198e+00
51 8       3.3652777777777789e+00
51 9       2.7484050925925928e+01
51 16       4.2067361111111108e+00
51 17      -1.6826944444444443e+01
51 18       2.0472858796296290e+01
51 19      -2.2204460492503131e-16
51 20      -6.7307777777777773e+01
51 21       8.0208726851851864e+01
51 22      -4.2067361111111108e+00
51 23      -1.6826944444444443e+01
51 24       2.0472858796296293e+01
51 46       0.0000000000000000e+00
51 47      -3.5527136788005009e-15
51 48      -7.8526018518518512e+01
51 49       1.7763568394002505e-15
51 50       2.1316282072803006e-14
51 52       8.8817841970012523e-16
51 53       0.0000000000000000e+00
51 54      -7.8526018518518498e+01
51 61       2.2204460492503131e-16
51 62       8.8817841970012523e-16
51 63      -1.2339675925925928e+01
51 64       0.0000000000000000e+00
51 65       8.8817841970012523e-16
51 66      -5.6089537037037026e+01
51 67       5.5511151231257827e-16
51 68      -8.8817841970012523e-16
51 69      -1.2339675925925928e+01
51 91      -8.4134722222222180e+00
51 92      -3.3652777777777763e+00
51 93       2.7484050925925931e+01
51 94       6.6613381477509392e-16
51 95      -1.3461111111111112e+01
51 96       1.0657078703703704e+02
51 97       8.4134722222222180e+00
51 98      -3.3652777777777798e+00
51 99       2.7484050925925928e+01
51 106      -4.2067361111111117e+00
51 107       1.6826944444444443e+01
51 108       2.0472858796296293e+01
51 109       2.2204460492503131e-16
51 110       6.7307777777777773e+01
51 111       8.0208726851851864e+01
51 112       4.2067361111111108e+00
51 113       1.6826944444444447e+01
51 114       2.0472858796296293e+01
52 52      -1.5929629629629625e+02
52 4       6.4503703703703685e+00
52 5       8.4131944444444462e-01
52 6       8.4134722222222180e+00
52 7       1.4022592592592600e+01
52 8       0.0000000000000000e+00
52 9       6.6613381477509392e-16
52 10       6.4503703703703694e+00
52 11      -8.4131944444444473e-01
52 12      -8.4134722222222198e+00
52 19       9.9560185185185155e+00
52 20      -4.2067361111111108e+00
52 21       4.2067361111111108e+00
52 22       3.3934629629629626e+01
52 23       2.2204460492503131e-16
52 24       3.3306690738754696e-16
52 25       9.9560185185185190e+00
52 26       4.2067361111111108e+00
52 27      -4.2067361111111117e+00
52 49      -2.8045185185185186e+01
52 50       3.3652777777777776e+00
52 51       8.8817841970012523e-16
52 53       1.7763568394002505e-15
52 54       0.0000000000000000e+00
52 55      -2.8045185185185197e+01
52 56      -3.3652777777777798e+00
52 57       2.2204460492503131e-16
52 64       1.2900740740740737e+01
52 65      -1.6826944444444440e+01
52 66       3.3306690738754696e-16
52 67       2.8045185185185201e+01
52 68       2.2204460492503131e-15
52 69       0.0000000000000000e+00
52 70       1.2900740740740737e+01
52 71       1.6826944444444443e+01
52 72       3.3306690738754696e-16
52 94       6.4503703703703676e+00
52 95       8.4131944444444451e-01
52 96      -8.4134722222222198e+00
52 97       1.4022592592592598e+01
52 98       8.8817841970012523e-16
52 99       8.8817841970012523e-16
52 100       6.4503703703703703e+00
52 101      -8.4131944444444429e-01
52 102       8.4134722222222198e+00
52 109       9.9560185185185190e+00
52 110      -4.2067361111111108e+00
52 111      -4.2067361111111099e+00
52 112       3.3934629629629640e+01
52 113       0.0000000000000000e+00
52 114       2.2204460492503131e-16
52 115       9.9560185185185226e+00
52 116       4.2067361111111108e+00
52 117       4.2067361111111108e+00
53 53      -3.2756574074074081e+02
53 4      -8.4131944444444473e-01
53 5      -6.1698379629629621e+00
53 6      -3.3652777777777798e+00
53 7       0.0000000000000000e+00
53 8      -2.8044768518518516e+01
53 9      -1.3461111111111119e+01
53 10       8.4131944444444484e-01
53 11      -6.1698379629629656e+00
53 12      -3.3652777777777807e+00
53 19      -4.2067361111111108e+00
53 20       2.0472858796296293e+01
53 21      -1.6826944444444447e+01
53 22      -1.1102230246251565e-16
53 23       8.0208726851851878e+01
53 24      -6.7307777777777773e+01
53 25       4.2067361111111099e+00
53 26       2.0472858796296300e+01
53 27      -1.6826944444444450e+01
53 49      -3.3652777777777789e+00
53 50      -7.8526018518518512e+01
53 51       0.0000000000000000e+00
53 52       1.7763568394002505e-15
53 54       2.1316282072803006e-14
53 55       3.3652777777777789e+00
53 56      -7.8526018518518526e+01
53 57      -3.5527136788005009e-15
53 64      -1.6826944444444436e+01
53 65       5.4968101851851856e+01
53 66      -8.8817841970012523e-16
53 67       2.2204460492503131e-16
53 68       2.1314157407407413e+02
53 69      -3.5527136788005009e-15
53 70       1.6826944444444443e+01
53 71       5.4968101851851870e+01
53 72      -2.6645352591003757e-15
53 94      -8.4131944444444451e-01
53 95      -6.1698379629629629e+00
53 96       3.3652777777777789e+00
53 97       8.8817841970012523e-16
53 98      -2.8044768518518513e+01
53 99       1.3461111111111117e+01
53 100       8.4131944444444540e-01
53 101      -6.1698379629629647e+00
53 102       3.3652777777777789e+00
53 109      -4.2067361111111117e+00
53 110       2.0472858796296293e+01
53 111       1.6826944444444440e+01
53 112      -3.3306690738754696e-16
53 113       8.0208726851851878e+01
53 114       6.7307777777777773e+01
53 115       4.2067361111111108e+00
53 116       2.0472858796296308e+01
53 117       1.6826944444444450e+01
54 54      -3.2756574074074081e+02
54 4       8.4134722222222198e+00
54 5       3.3652777777777771e+00
54 6       2.7484050925925928e+01
54 7       4.4408920985006262e-16
54 8       1.3461111111111116e+01
54 9       1.0657078703703706e+02
54 10      -8.4134722222222198e+00
54 11       3.3652777777777789e+00
54 12       2.7484050925925935e+01
54 19       4.2067361111111108e+00
54 20      -1.6826944444444443e+01
54 21       2.0472858796296293e+01
54 22       4.4408920985006262e-16
54 23      -6.7307777777777773e+01
54 24       8.0208726851851878e+01
54 25      -4.2067361111111108e+00
54 26      -1.6826944444444447e+01
54 27       2.0472858796296300e+01
54 49       6.6613381477509392e-16
54 50      -3.5527136788005009e-15
54 51      -7.8526018518518498e+01
54 52       0.0000000000000000e+00
54 53       2.1316282072803006e-14
54 55       1.3322676295501878e-15
54 56      -3.5527136788005009e-15
54 57      -7.8526018518518526e+01
54 64       1.1102230246251565e-16
54 65      -8.8817841970012523e-16
54 66      -1.2339675925925926e+01
54 67       0.0000000000000000e+00
54 68      -1.7763568394002505e-15
54 69      -5.6089537037037019e+01
54 70       2.2204460492503131e-16
54 71       0.0000000000000000e+00
54 72      -1.2339675925925929e+01
54 94      -8.4134722222222180e+00
54 95      -3.3652777777777789e+00
54 96       2.7484050925925928e+01
54 97       1.1102230246251565e-15
54 98      -1.3461111111111119e+01
54 99       1.0657078703703706e+02
54 100       8.4134722222222180e+00
54 101      -3.3652777777777816e+00
54 102       2.7484050925925935e+01
54 109      -4.2067361111111117e+00
54 110       1.6826944444444447e+01
54 111       2.0472858796296297e+01
54 112      -2.2204460492503131e-16
54 113       6.7307777777777787e+01
54 114       8.0208726851851878e+01
54 115       4.2067361111111108e+00
54 116       1.6826944444444450e+01
54 117       2.0472858796296300e+01
55 55      -1.5929629629629625e+02
55 7       6.4503703703703694e+00
55 8       8.4131944444444440e-01
55 9       8.4134722222222180e+00
55 10       1.4022592592592600e+01
55 11       1.7763568394002505e-15
55 12       6.6613381477509392e-16
55 13       6.4503703703703694e+00
55 14      -8.4131944444444473e-01
55 15      -8.4134722222222198e+00
55 22       9.9560185185185226e+00
55 23      -4.2067361111111108e+00
55 24       4.2067361111111099e+00
55 25       3.3934629629629626e+01
55 26       0.0000000000000000e+00
55 27       5.5511151231257827e-16
55 28       9.9560185185185155e+00
55 29       4.2067361111111108e+00
55 30      -4.2067361111111117e+00
55 52      -2.8045185185185197e+01
55 53       3.3652777777777789e+00
55 54       1.3322676295501878e-15
55 56       5.3290705182007514e-15
55 57      -1.7763568394002505e-15
55 58      -2.8045185185185183e+01
55 59      -3.3652777777777798e+00
55 60       0.0000000000000000e+00
55 67       1.2900740740740741e+01
55 68      -1.6826944444444443e+01
55 69       5.5511151231257827e-16
55 70       2.8045185185185193e+01
55 71       2.2204460492503131e-15
55 72      -1.7763568394002505e-15
55 73       1.2900740740740735e+01
55 74       1.6826944444444443e+01
55 75       4.4408920985006262e-16
55 97       6.4503703703703694e+00
55 98       8.4131944444444495e-01
55 99      -8.4134722222222198e+00
55 100       1.4022592592592602e+01
55 101       2.6645352591003757e-15
55 102       8.8817841970012523e-16
55 103       6.4503703703703703e+00
55 104      -8.4131944444444429e-01
55 105       8.4134722222222198e+00
55 112       9.9560185185185226e+00
55 113      -4.2067361111111108e+00
55 114      -4.2067361111111108e+00
55 115       3.3934629629629633e+01
55 116       0.0000000000000000e+00
55 117       0.0000000000000000e+00
55 118       9.9560185185185155e+00
55 119       4.2067361111111108e+00
55 120       4.2067361111111099e+00
56 56      -3.2756574074074081e+02
56 7      -8.4131944444444473e-01
56 8      -6.1698379629629665e+00
56 9      -3.3652777777777816e+00
56 10       8.8817841970012523e-16
56 11      -2.8044768518518509e+01
56 12      -1.3461111111111114e+01
56 13       8.4131944444444440e-01
56 14      -6.1698379629629585e+00
56 15      -3.3652777777777763e+00
56 22      -4.2067361111111117e+00
56 23       2.0472858796296300e+01
56 24      -1.6826944444444450e+01
56 25       3.3306690738754696e-16
56 26       8.0208726851851864e+01
56 27      -6.7307777777777773e+01
56 28       4.2067361111111108e+00
56 29       2.0472858796296290e+01
56 30      -1.6826944444444440e+01
56 52      -3.3652777777777798e+00
56 53      -7.8526018518518526e+01
56 54      -3.5527136788005009e-15
56 55       5.3290705182007514e-15
56 57      -7.1054273576010019e-15
56 58       3.3652777777777771e+00
56 59      -7.8526018518518498e+01
56 60      -3.5527136788005009e-15
56 67      -1.6826944444444440e+01
56 68       5.4968101851851870e+01
56 69      -2.6645352591003757e-15
56 70       1.7763568394002505e-15
56 71       2.1314157407407413e+02
56 72      -6.2172489379008766e-15
56 73       1.6826944444444440e+01
56 74       5.4968101851851827e+01
56 75      -2.2204460492503131e-15
56 97      -8.4131944444444473e-01
56 98      -6.1698379629629656e+00
56 99       3.3652777777777789e+00
56 100       2.6645352591003757e-15
56 101      -2.8044768518518509e+01
56 102       1.3461111111111114e+01
56 103       8.4131944444444495e-01
56 104      -6.1698379629629585e+00
56 105       3.3652777777777780e+00
56 112      -4.2067361111111117e+00
56 113       2.0472858796296308e+01
56 114       1.6826944444444450e+01
56 115       1.1102230246251565e-16
56 116       8.0208726851851878e+01
56 117       6.7307777777777773e+01
56 118       4.2067361111111108e+00
56 119       2.0472858796296290e+01
56 120       1.6826944444444440e+01
57 57      -3.2756574074074081e+02
57 7       8.4134722222222198e+00
57 8       3.3652777777777789e+00
57 9       2.7484050925925935e+01
57 10      -4.4408920985006262e-16
57 11       1.3461111111111116e+01
57 12       1.0657078703703708e+02
57 13      -8.4134722222222198e+00
57 14       3.3652777777777798e+00
57 15       2.7484050925925924e+01
57 22       4.2067361111111108e+00
57 23      -1.6826944444444447e+01
57 24       2.0472858796296300e+01
57 25       0.0000000000000000e+00
57 26      -6.7307777777777773e+01
57 27       8.0208726851851864e+01
57 28      -4.2067361111111108e+00
57 29      -1.6826944444444440e+01
57 30       2.0472858796296290e+01
57 52       2.2204460492503131e-16
57 53      -3.5527136788005009e-15
57 54      -7.8526018518518526e+01
57 55      -1.7763568394002505e-15
57 56      -7.1054273576010019e-15
57 58       8.8817841970012523e-16
57 59      -3.5527136788005009e-15
57 60      -7.8526018518518512e+01
57 67       2.2204460492503131e-16
57 68       0.0000000000000000e+00
57 69      -1.2339675925925929e+01
57 70       8.8817841970012523e-16
57 71      -1.7763568394002505e-15
57 72      -5.6089537037037033e+01
57 73       7.7715611723760958e-16
57 74      -1.7763568394002505e-15
57 75      -1.2339675925925926e+01
57 97      -8.4134722222222180e+00
57 98      -3.3652777777777807e+00
57 99       2.7484050925925935e+01
57 100       1.9984014443252818e-15
57 101      -1.3461111111111114e+01
57 102       1.0657078703703708e+02
57 103       8.4134722222222180e+00
57 104      -3.3652777777777771e+00
57 105       2.7484050925925921e+01
57 112      -4.2067361111111117e+00
57 113       1.6826944444444450e+01
57 114       2.0472858796296300e+01
57 115       4.4408920985006262e-16
57 116       6.7307777777777773e+01
57 117       8.0208726851851878e+01
57 118       4.2067361111111108e+00
57 119       1.6826944444444440e+01
57 120       2.0472858796296290e+01
58 58      -7.9648148148148124e+01
58 10       6.4503703703703694e+00
58 11       8.4131944444444440e-01
58 12       8.4134722222222180e+00
58 13       7.0112962962962975e+00
58 14       4.2067361111111117e+00
58 15       1.6826388888888892e+00
58 25       9.9560185185185155e+00
58 26      -4.2067361111111108e+00
58 27       4.2067361111111117e+00
58 28       1.6967314814814813e+01
58 29      -8.4131944444444429e-01
58 30       8.4131944444444462e-01
58 55      -2.8045185185185183e+01
58 56       3.3652777777777771e+00
58 57       8.8817841970012523e-16
58 59       1.6826944444444443e+01
58 60       0.0000000000000000e+00
58 70       1.2900740740740737e+01
58 71      -1.6826944444444440e+01
58 72       0.0000000000000000e+00
58 73       1.4022592592592588e+01
58 74      -3.3652777777777789e+00
58 75       8.8817841970012523e-16
58 100       6.4503703703703694e+00
58 101       8.4131944444444440e-01
58 102      -8.4134722222222198e+00
58 103       7.0112962962962975e+00
58 104       4.2067361111111117e+00
58 105      -1.6826388888888890e+00
58 115       9.9560185185185155e+00
58 116      -4.2067361111111108e+00
58 117      -4.2067361111111108e+00
58 118       1.6967314814814813e+01
58 119      -8.4131944444444473e-01
58 120      -8.4131944444444429e-01
58 376       0.0000000000000000e+00
58 377       0.0000000000000000e+00
58 378       0.0000000000000000e+00
58 379       0.0000000000000000e+00
58 380       0.0000000000000000e+00
58 381       0.0000000000000000e+00
58 379      -2.3556944444444433e+01
58 385       0.0000000000000000e+00
58 386       0.0000000000000000e+00
58 387       0.0000000000000000e+00
58 388       0.0000000000000000e+00
58 389       0.0000000000000000e+00
58 390       0.0000000000000000e+00
58 394       0.0000000000000000e+00
58 395       0.0000000000000000e+00
58 396       0.0000000000000000e+00
58 397       0.0000000000000000e+00
58 398       0.0000000000000000e+00
58 399       0.0000000000000000e+00
59 59      -1.6378287037037035e+02
59 379      -2.3556944444444433e+01
59 385       0.0000000000000000e+00
59 386       0.0000000000000000e+00
59 387       0.0000000000000000e+00
59 388       0.0000000000000000e+00
59 389       0.0000000000000000e+00
59 390       0.0000000000000000e+00
59 394       0.0000000000000000e+00
59 395       0.0000000000000000e+00
59 396       0.0000000000000000e+00
59 397       0.0000000000000000e+00
59 398       0.0000000000000000e+00
59 399       0.0000000000000000e+00
59 55       0.0000000000000000e+00
59 56      -7.8526018518518498e+01
59 57      -3.5527136788005009e-15
59 58       1.6826944444444443e+01
59 60       7.1054273576010019e-15
59 70      -1.6826944444444436e+01
59 71       5.4968101851851841e+01
59 72      -2.2204460492503131e-15
59 73       3.3652777777777776e+00
59 74       1.0657078703703702e+02
59 75      -4.4408920985006262e-15
59 100      -8.4131944444444473e-01
59 101      -6.1698379629629585e+00
59 102       3.3652777777777816e+00
59 103       4.2067361111111117e+00
59 104      -1.4022384259259253e+01
59 105       6.7305555555555623e+00
59 115      -4.2067361111111117e+00
59 116       2.0472858796296293e+01
59 117       1.6826944444444440e+01
59 118       8.4131944444444451e-01
59 119       4.0104363425925925e+01
59 120       3.3653888888888893e+01
59 376       0.0000000000000000e+00
59 377       0.0000000000000000e+00
59 378       0.0000000000000000e+00
59 380       0.0000000000000000e+00
59 381       0.0000000000000000e+00
59 379       1.1105791666666667e+02
59 385       0.0000000000000000e+00
59 386       0.0000000000000000e+00
59 387       0.0000000000000000e+00
59 388       0.0000000000000000e+00
59 389       0.0000000000000000e+00
59 390       0.0000000000000000e+00
59 394       0.0000000000000000e+00
59 395       0.0000000000000000e+00
59 396       0.0000000000000000e+00
59 397       0.0000000000000000e+00
59 398       0.0000000000000000e+00
59 399       0.0000000000000000e+00
60 60      -1.6378287037037035e+02
60 379       1.1105791666666667e+02
60 385       0.0000000000000000e+00
60 386       0.0000000000000000e+00
60 387       0.0000000000000000e+00
60 388       0.0000000000000000e+00
60 389       0.0000000000000000e+00
60 390       0.0000000000000000e+00
60 394       0.0000000000000000e+00
60 395       0.0000000000000000e+00
60 396       0.0000000000000000e+00
60 397       0.0000000000000000e+00
60 398       0.0000000000000000e+00
60 399       0.0000000000000000e+00
60 55       0.0000000000000000e+00
60 56      -3.5527136788005009e-15
60 57      -7.8526018518518512e+01
60 58       0.0000000000000000e+00
60 59       7.1054273576010019e-15
60 70       2.2204460492503131e-16
60 71      -8.8817841970012523e-16
60 72      -1.2339675925925922e+01
60 73       8.8817841970012523e-16
60 74      -8.8817841970012523e-16
60 75      -2.8044768518518513e+01
60 100      -8.4134722222222180e+00
60 101      -3.3652777777777754e+00
60 102       2.7484050925925924e+01
60 103       1.6826388888888892e+00
60 104      -6.7305555555555534e+00
60 105       5.3285393518518518e+01
60 115      -4.2067361111111117e+00
60 116       1.6826944444444443e+01
60 117       2.0472858796296293e+01
60 118       8.4131944444444451e-01
60 119       3.3653888888888886e+01
60 120       4.0104363425925925e+01
60 376       0.0000000000000000e+00
60 377       0.0000000000000000e+00
60 378       0.0000000000000000e+00
60 380       0.0000000000000000e+00
60 381       0.0000000000000000e+00
60 385       4.1366967592592580e+01
60 386       0.0000000000000000e+00
60 387       0.0000000000000000e+00
60 388       0.0000000000000000e+00
60 389       0.0000000000000000e+00
60 390       0.0000000000000000e+00
60 394       0.0000000000000000e+00
60 395       0.0000000000000000e+00
60 396       0.0000000000000000e+00
60 397       0.0000000000000000e+00
60 398       0.0000000000000000e+00
60 399       0.0000000000000000e+00
61 61      -1.5929629629629622e+02
61 385       4.1366967592592580e+01
61 386       0.0000000000000000e+00
61 387       0.0000000000000000e+00
61 388       0.0000000000000000e+00
61 389       0.0000000000000000e+00
61 390       0.0000000000000000e+00
61 394       0.0000000000000000e+00
61 395       0.0000000000000000e+00
61 396       0.0000000000000000e+00
61 397       0.0000000000000000e+00
61 398       0.0000000000000000e+00
61 399       0.0000000000000000e+00
61 31       0.0000000000000000e+00
61 32       0.0000000000000000e+00
61 33      -8.4131944444444406e-01
61 34       9.9560185185185155e+00
61 35       4.2067361111111108e+00
61 36      -4.2067361111111108e+00
61 46       1.4022592592592595e+01
61 47      -3.3652777777777780e+00
61 48       0.0000000000000000e+00
61 49       1.2900740740740739e+01
61 50      -1.6826944444444436e+01
61 51       2.2204460492503131e-16
61 62       3.5527136788005009e-15
61 63       5.3290705182007514e-15
61 64      -5.6090370370370366e+01
61 65      -2.2204460492503131e-16
61 66       2.2204460492503131e-16
61 76       1.4022592592592591e+01
61 77       3.3652777777777785e+00
61 78       0.0000000000000000e+00
61 79       1.2900740740740737e+01
61 80       1.6826944444444443e+01
61 81       1.1102230246251565e-16
61 91       1.6967314814814813e+01
61 92      -8.4131944444444495e-01
61 93       8.4131944444444473e-01
61 94       9.9560185185185155e+00
61 95      -4.2067361111111108e+00
61 96       4.2067361111111108e+00
61 106       1.4022592592592591e+01
61 107       8.8817841970012523e-16
61 108       3.3652777777777780e+00
61 109       1.2900740740740737e+01
61 110       3.3306690738754696e-16
61 111       1.6826944444444443e+01
61 121       1.6967314814814817e+01
61 122       8.4131944444444473e-01
61 123       8.4131944444444429e-01
61 124       9.9560185185185155e+00
61 125       4.2067361111111108e+00
61 126       4.2067361111111099e+00
62 62      -3.2756574074074075e+02
62 1       1.2163194444444443e+00
62 2       4.0104363425925925e+01
62 3       3.3653888888888879e+01
62 4      -4.2067361111111108e+00
62 5       2.0472858796296290e+01
62 6       1.6826944444444443e+01
62 16       0.0000000000000000e+00
62 17      -2.8044768518518509e+01
62 18       0.0000000000000000e+00
62 19       3.3306690738754696e-16
62 20      -1.2339675925925924e+01
62 21       4.4408920985006262e-16
62 31      -8.4131944444444451e-01
62 32       4.0104363425925925e+01
62 33      -3.3653888888888886e+01
62 34       4.2067361111111108e+00
62 35       2.0472858796296290e+01
62 36      -1.6826944444444447e+01
62 46       3.3652777777777794e+00
62 47       1.0657078703703704e+02
62 48       1.7763568394002505e-15
62 49      -1.6826944444444440e+01
62 50       5.4968101851851856e+01
62 51       8.8817841970012523e-16
62 61       3.5527136788005009e-15
62 63      -7.1054273576010019e-15
62 64       4.4408920985006262e-16
62 65      -1.5705203703703702e+02
62 66      -3.5527136788005009e-15
62 76      -3.3652777777777789e+00
62 77       1.0657078703703705e+02
62 78       8.8817841970012523e-16
62 79       1.6826944444444440e+01
62 80       5.4968101851851848e+01
62 81      -4.4408920985006262e-16
62 91       8.4131944444444406e-01
62 92       4.0104363425925932e+01
62 93      -3.3653888888888879e+01
62 94      -4.2067361111111108e+00
62 95       2.0472858796296290e+01
62 96      -1.6826944444444443e+01
62 106       8.8817841970012523e-16
62 107      -2.8044768518518516e+01
62 108       8.8817841970012523e-16
62 109       6.6613381477509392e-16
62 110      -1.2339675925925928e+01
62 111       8.8817841970012523e-16
62 121      -8.4131944444444473e-01
62 122       4.0104363425925939e+01
62 123       3.3653888888888879e+01
62 124       4.2067361111111108e+00
62 125       2.0472858796296290e+01
62 126       1.6826944444444443e+01
63 63      -3.2756574074074069e+02
63 1       4.6631944444444456e-01
63 2       3.3653888888888879e+01
63 3       4.0104363425925925e+01
63 4      -4.2067361111111108e+00
63 5       1.6826944444444443e+01
63 6       2.0472858796296290e+01
63 16       3.3652777777777780e+00
63 17       0.0000000000000000e+00
63 18       1.0657078703703705e+02
63 19      -1.6826944444444443e+01
63 20       0.0000000000000000e+00
63 21       5.4968101851851856e+01
63 31       8.4131944444444495e-01
63 32      -3.3653888888888879e+01
63 33       4.0104363425925932e+01
63 34      -4.2067361111111099e+00
63 35      -1.6826944444444440e+01
63 36       2.0472858796296290e+01
63 46      -8.8817841970012523e-16
63 47       0.0000000000000000e+00
63 48      -2.8044768518518516e+01
63 49      -1.1102230246251565e-16
63 50      -8.8817841970012523e-16
63 51      -1.2339675925925928e+01
63 61       5.3290705182007514e-15
63 62      -7.1054273576010019e-15
63 64       0.0000000000000000e+00
63 65      -3.5527136788005009e-15
63 66      -1.5705203703703705e+02
63 76      -8.8817841970012523e-16
63 77       2.6645352591003757e-15
63 78      -2.8044768518518509e+01
63 79       0.0000000000000000e+00
63 80       8.8817841970012523e-16
63 81      -1.2339675925925926e+01
63 91      -8.4131944444444429e-01
63 92      -3.3653888888888886e+01
63 93       4.0104363425925925e+01
63 94       4.2067361111111108e+00
63 95      -1.6826944444444447e+01
63 96       2.0472858796296290e+01
63 106      -3.3652777777777780e+00
63 107       2.6645352591003757e-15
63 108       1.0657078703703705e+02
63 109       1.6826944444444440e+01
63 110       8.8817841970012523e-16
63 111       5.4968101851851856e+01
63 121      -8.4131944444444495e-01
63 122       3.3653888888888879e+01
63 123       4.0104363425925932e+01
63 124       4.2067361111111108e+00
63 125       1.6826944444444443e+01
63 126       2.0472858796296290e+01
64 64      -3.1859259259259250e+02
64 1       9.5810185185185155e+00
64 2       4.2067361111111108e+00
64 3       4.2067361111111108e+00
64 4       3.3934629629629626e+01
64 5      -2.2204460492503131e-16
64 6       2.2204460492503131e-16
64 7       9.9560185185185155e+00
64 8      -4.2067361111111108e+00
64 9      -4.2067361111111117e+00
64 16       1.2900740740740737e+01
64 17       1.1102230246251565e-16
64 18       1.6826944444444440e+01
64 19       2.8045185185185197e+01
64 20      -8.8817841970012523e-16
64 21      -6.6613381477509392e-16
64 22       1.2900740740740737e+01
64 23      -4.4408920985006262e-16
64 24      -1.6826944444444443e+01
64 31       9.9560185185185190e+00
64 32      -4.2067361111111108e+00
64 33       4.2067361111111108e+00
64 34       3.3934629629629626e+01
64 35      -2.2204460492503131e-16
64 36       7.7715611723760958e-16
64 37       9.9560185185185155e+00
64 38       4.2067361111111108e+00
64 39      -4.2067361111111108e+00
64 46       1.2900740740740737e+01
64 47       1.6826944444444443e+01
64 48       5.5511151231257827e-16
64 49       2.8045185185185186e+01
64 50      -2.2204460492503131e-16
64 51       0.0000000000000000e+00
64 52       1.2900740740740737e+01
64 53      -1.6826944444444436e+01
64 54       1.1102230246251565e-16
64 61      -5.6090370370370366e+01
64 62       4.4408920985006262e-16
64 63       0.0000000000000000e+00
64 65       5.3290705182007514e-15
64 66       3.5527136788005009e-15
64 67      -5.6090370370370373e+01
64 68      -2.2204460492503131e-16
64 69       2.2204460492503131e-16
64 76       1.2900740740740739e+01
64 77      -1.6826944444444440e+01
64 78       0.0000000000000000e+00
64 79       2.8045185185185183e+01
64 80      -8.8817841970012523e-16
64 81       8.8817841970012523e-16
64 82       1.2900740740740737e+01
64 83       1.6826944444444443e+01
64 84      -1.1102230246251565e-16
64 91       9.9560185185185155e+00
64 92       4.2067361111111108e+00
64 93      -4.2067361111111099e+00
64 94       3.3934629629629626e+01
64 95      -6.6613381477509392e-16
64 96       4.4408920985006262e-16
64 97       9.9560185185185155e+00
64 98      -4.2067361111111117e+00
64 99       4.2067361111111108e+00
64 106       1.2900740740740737e+01
64 107      -4.4408920985006262e-16
64 108      -1.6826944444444443e+01
64 109       2.8045185185185190e+01
64 110       1.7763568394002505e-15
64 111      -8.8817841970012523e-16
64 112       1.2900740740740737e+01
64 113       4.4408920985006262e-16
64 114       1.6826944444444443e+01
64 121       9.9560185185185155e+00
64 122      -4.2067361111111108e+00
64 123      -4.2067361111111108e+00
64 124       3.3934629629629626e+01
64 125      -4.4408920985006262e-16
64 126      -4.4408920985006262e-16
64 127       9.9560185185185155e+00
64 128       4.2067361111111108e+00
64 129       4.2067361111111099e+00
65 65      -6.5513148148148139e+02
65 1       4.2067361111111108e+00
65 2       2.0472858796296290e+01
65 3       1.6826944444444443e+01
65 4      -2.2204460492503131e-16
65 5       8.0208726851851864e+01
65 6       6.7307777777777773e+01
65 7      -4.2067361111111108e+00
65 8       2.0472858796296293e+01
65 9       1.6826944444444447e+01
65 16       0.0000000000000000e+00
65 17      -1.2339675925925924e+01
65 18      -4.4408920985006262e-16
65 19       0.0000000000000000e+00
65 20      -5.6089537037037026e+01
65 21      -4.4408920985006262e-15
65 22       1.1102230246251565e-16
65 23      -1.2339675925925926e+01
65 24      -1.3322676295501878e-15
65 31      -4.2067361111111108e+00
65 32       2.0472858796296293e+01
65 33      -1.6826944444444447e+01
65 34      -3.3306690738754696e-16
65 35       8.0208726851851864e+01
65 36      -6.7307777777777773e+01
65 37       4.2067361111111108e+00
65 38       2.0472858796296293e+01
65 39      -1.6826944444444447e+01
65 46       1.6826944444444443e+01
65 47       5.4968101851851848e+01
65 48       0.0000000000000000e+00
65 49       2.2204460492503131e-16
65 50       2.1314157407407407e+02
65 51       8.8817841970012523e-16
65 52      -1.6826944444444440e+01
65 53       5.4968101851851856e+01
65 54      -8.8817841970012523e-16
65 61      -2.2204460492503131e-16
65 62      -1.5705203703703702e+02
65 63      -3.5527136788005009e-15
65 64       5.3290705182007514e-15
65 66       2.1316282072803006e-14
65 67       4.4408920985006262e-16
65 68      -1.5705203703703702e+02
65 69      -3.5527136788005009e-15
65 76      -1.6826944444444436e+01
65 77       5.4968101851851856e+01
65 78      -4.4408920985006262e-16
65 79      -1.9984014443252818e-15
65 80       2.1314157407407410e+02
65 81      -8.8817841970012523e-16
65 82       1.6826944444444440e+01
65 83       5.4968101851851856e+01
65 84       0.0000000000000000e+00
65 91       4.2067361111111108e+00
65 92       2.0472858796296290e+01
65 93      -1.6826944444444440e+01
65 94      -1.1102230246251565e-15
65 95       8.0208726851851878e+01
65 96      -6.7307777777777773e+01
65 97      -4.2067361111111117e+00
65 98       2.0472858796296293e+01
65 99      -1.6826944444444443e+01
65 106      -2.2204460492503131e-16
65 107      -1.2339675925925928e+01
65 108       2.6645352591003757e-15
65 109       8.8817841970012523e-16
65 110      -5.6089537037037019e+01
65 111       1.7763568394002505e-15
65 112       6.6613381477509392e-16
65 113      -1.2339675925925928e+01
65 114       0.0000000000000000e+00
65 121      -4.2067361111111117e+00
65 122       2.0472858796296290e+01
65 123       1.6826944444444443e+01
65 124      -6.6613381477509392e-16
65 125       8.0208726851851878e+01
65 126       6.7307777777777773e+01
65 127       4.2067361111111108e+00
65 128       2.0472858796296293e+01
65 129       1.6826944444444440e+01
66 66      -6.5513148148148139e+02
66 1       4.2067361111111108e+00
66 2       1.6826944444444440e+01
66 3       2.0472858796296290e+01
66 4      -4.4408920985006262e-16
66 5       6.7307777777777773e+01
66 6       8.0208726851851864e+01
66 7      -4.2067361111111108e+00
66 8       1.6826944444444440e+01
66 9       2.0472858796296293e+01
66 16       1.6826944444444443e+01
66 17      -8.8817841970012523e-16
66 18       5.4968101851851856e+01
66 19      -1.3322676295501878e-15
66 20      -4.4408920985006262e-15
66 21       2.1314157407407410e+02
66 22      -1.6826944444444443e+01
66 23       8.8817841970012523e-16
66 24       5.4968101851851856e+01
66 31       4.2067361111111108e+00
66 32      -1.6826944444444440e+01
66 33       2.0472858796296290e+01
66 34       1.1102230246251565e-15
66 35      -6.7307777777777773e+01
66 36       8.0208726851851878e+01
66 37      -4.2067361111111099e+00
66 38      -1.6826944444444443e+01
66 39       2.0472858796296293e+01
66 46       2.2204460492503131e-16
66 47      -8.8817841970012523e-16
66 48      -1.2339675925925928e+01
66 49      -8.8817841970012523e-16
66 50      -8.8817841970012523e-16
66 51      -5.6089537037037026e+01
66 52       3.3306690738754696e-16
66 53      -8.8817841970012523e-16
66 54      -1.2339675925925926e+01
66 61       2.2204460492503131e-16
66 62      -3.5527136788005009e-15
66 63      -1.5705203703703705e+02
66 64       3.5527136788005009e-15
66 65       2.1316282072803006e-14
66 67       0.0000000000000000e+00
66 68      -3.5527136788005009e-15
66 69      -1.5705203703703702e+02
66 76       0.0000000000000000e+00
66 77       8.8817841970012523e-16
66 78      -1.2339675925925924e+01
66 79       0.0000000000000000e+00
66 80       1.7763568394002505e-15
66 81      -5.6089537037037026e+01
66 82      -2.2204460492503131e-16
66 83       0.0000000000000000e+00
66 84      -1.2339675925925928e+01
66 91      -4.2067361111111117e+00
66 92      -1.6826944444444447e+01
66 93       2.0472858796296293e+01
66 94       2.2204460492503131e-16
66 95      -6.7307777777777773e+01
66 96       8.0208726851851864e+01
66 97       4.2067361111111108e+00
66 98      -1.6826944444444447e+01
66 99       2.0472858796296293e+01
66 106      -1.6826944444444443e+01
66 107       1.7763568394002505e-15
66 108       5.4968101851851856e+01
66 109      -4.4408920985006262e-16
66 110       8.8817841970012523e-16
66 111       2.1314157407407410e+02
66 112       1.6826944444444443e+01
66 113      -8.8817841970012523e-16
66 114       5.4968101851851856e+01
66 121      -4.2067361111111117e+00
66 122       1.6826944444444443e+01
66 123       2.0472858796296290e+01
66 124      -7.7715611723760958e-16
66 125       6.7307777777777773e+01
66 126       8.0208726851851878e+01
66 127       4.2067361111111108e+00
66 128       1.6826944444444447e+01
66 129       2.0472858796296293e+01
67 67      -3.1859259259259261e+02
67 4       9.9560185185185155e+00
67 5       4.2067361111111108e+00
67 6       4.2067361111111108e+00
67 7       3.3934629629629626e+01
67 8      -1.1102230246251565e-16
67 9       2.2204460492503131e-16
67 10       9.9560185185185190e+00
67 11      -4.2067361111111108e+00
67 12      -4.2067361111111117e+00
67 19       1.2900740740740737e+01
67 20       1.1102230246251565e-16
67 21       1.6826944444444440e+01
67 22       2.8045185185185197e+01
67 23      -8.8817841970012523e-16
67 24       0.0000000000000000e+00
67 25       1.2900740740740739e+01
67 26       0.0000000000000000e+00
67 27      -1.6826944444444443e+01
67 34       9.9560185185185190e+00
67 35      -4.2067361111111108e+00
67 36       4.2067361111111117e+00
67 37       3.3934629629629633e+01
67 38      -2.2204460492503131e-16
67 39       8.8817841970012523e-16
67 40       9.9560185185185208e+00
67 41       4.2067361111111108e+00
67 42      -4.2067361111111117e+00
67 49       1.2900740740740737e+01
67 50       1.6826944444444443e+01
67 51       5.5511151231257827e-16
67 52       2.8045185185185201e+01
67 53       2.2204460492503131e-16
67 54       0.0000000000000000e+00
67 55       1.2900740740740741e+01
67 56      -1.6826944444444440e+01
67 57       2.2204460492503131e-16
67 64      -5.6090370370370373e+01
67 65       4.4408920985006262e-16
67 66       0.0000000000000000e+00
67 68       5.3290705182007514e-15
67 69       3.5527136788005009e-15
67 70      -5.6090370370370394e+01
67 71       0.0000000000000000e+00
67 72       2.2204460492503131e-16
67 79       1.2900740740740737e+01
67 80      -1.6826944444444443e+01
67 81      -2.2204460492503131e-16
67 82       2.8045185185185197e+01
67 83      -6.6613381477509392e-16
67 84       8.8817841970012523e-16
67 85       1.2900740740740741e+01
67 86       1.6826944444444443e+01
67 87      -3.3306690738754696e-16
67 94       9.9560185185185155e+00
67 95       4.2067361111111108e+00
67 96      -4.2067361111111099e+00
67 97       3.3934629629629633e+01
67 98      -6.6613381477509392e-16
67 99       6.6613381477509392e-16
67 100       9.9560185185185226e+00
67 101      -4.2067361111111117e+00
67 102       4.2067361111111108e+00
67 109       1.2900740740740737e+01
67 110       0.0000000000000000e+00
67 111      -1.6826944444444443e+01
67 112       2.8045185185185193e+01
67 113       8.8817841970012523e-16
67 114      -2.2204460492503131e-16
67 115       1.2900740740740741e+01
67 116       5.5511151231257827e-16
67 117       1.6826944444444443e+01
67 124       9.9560185185185155e+00
67 125      -4.2067361111111108e+00
67 126      -4.2067361111111108e+00
67 127       3.3934629629629633e+01
67 128      -8.8817841970012523e-16
67 129      -6.6613381477509392e-16
67 130       9.9560185185185226e+00
67 131       4.2067361111111117e+00
67 132       4.2067361111111108e+00
68 68      -6.5513148148148161e+02
68 4       4.2067361111111108e+00
68 5       2.0472858796296293e+01
68 6       1.6826944444444447e+01
68 7       2.2204460492503131e-16
68 8       8.0208726851851878e+01
68 9       6.7307777777777787e+01
68 10      -4.2067361111111108e+00
68 11       2.0472858796296300e+01
68 12       1.6826944444444450e+01
68 19      -1.1102230246251565e-16
68 20      -1.2339675925925924e+01
68 21      -2.2204460492503131e-15
68 22       0.0000000000000000e+00
68 23      -5.6089537037037033e+01
68 24      -4.4408920985006262e-15
68 25       1.1102230246251565e-16
68 26      -1.2339675925925929e+01
68 27      -1.7763568394002505e-15
68 34      -4.2067361111111108e+00
68 35       2.0472858796296297e+01
68 36      -1.6826944444444447e+01
68 37      -2.2204460492503131e-16
68 38       8.0208726851851878e+01
68 39      -6.7307777777777801e+01
68 40       4.2067361111111099e+00
68 41       2.0472858796296300e+01
68 42      -1.6826944444444450e+01
68 49       1.6826944444444443e+01
68 50       5.4968101851851856e+01
68 51      -8.8817841970012523e-16
68 52       2.2204460492503131e-15
68 53       2.1314157407407413e+02
68 54      -1.7763568394002505e-15
68 55      -1.6826944444444443e+01
68 56       5.4968101851851870e+01
68 57       0.0000000000000000e+00
68 64      -2.2204460492503131e-16
68 65      -1.5705203703703702e+02
68 66      -3.5527136788005009e-15
68 67       5.3290705182007514e-15
68 69       2.1316282072803006e-14
68 70       4.4408920985006262e-16
68 71      -1.5705203703703705e+02
68 72       0.0000000000000000e+00
68 79      -1.6826944444444436e+01
68 80       5.4968101851851856e+01
68 81      -4.4408920985006262e-16
68 82      -1.5543122344752192e-15
68 83       2.1314157407407413e+02
68 84      -3.5527136788005009e-15
68 85       1.6826944444444443e+01
68 86       5.4968101851851870e+01
68 87      -1.7763568394002505e-15
68 94       4.2067361111111108e+00
68 95       2.0472858796296290e+01
68 96      -1.6826944444444443e+01
68 97      -6.6613381477509392e-16
68 98       8.0208726851851864e+01
68 99      -6.7307777777777773e+01
68 100      -4.2067361111111117e+00
68 101       2.0472858796296300e+01
68 102      -1.6826944444444447e+01
68 109      -2.2204460492503131e-16
68 110      -1.2339675925925928e+01
68 111       1.7763568394002505e-15
68 112       1.7763568394002505e-15
68 113      -5.6089537037037040e+01
68 114      -5.3290705182007514e-15
68 115       6.6613381477509392e-16
68 116      -1.2339675925925933e+01
68 117      -8.8817841970012523e-16
68 124      -4.2067361111111117e+00
68 125       2.0472858796296293e+01
68 126       1.6826944444444440e+01
68 127      -7.7715611723760958e-16
68 128       8.0208726851851878e+01
68 129       6.7307777777777773e+01
68 130       4.2067361111111108e+00
68 131       2.0472858796296308e+01
68 132       1.6826944444444450e+01
69 69      -6.5513148148148150e+02
69 4       4.2067361111111108e+00
69 5       1.6826944444444440e+01
69 6       2.0472858796296293e+01
69 7       2.2204460492503131e-16
69 8       6.7307777777777773e+01
69 9       8.0208726851851878e+01
69 10      -4.2067361111111108e+00
69 11       1.6826944444444450e+01
69 12       2.0472858796296300e+01
69 19       1.6826944444444443e+01
69 20      -2.6645352591003757e-15
69 21       5.4968101851851856e+01
69 22      -1.5543122344752192e-15
69 23      -5.3290705182007514e-15
69 24       2.1314157407407413e+02
69 25      -1.6826944444444443e+01
69 26       0.0000000000000000e+00
69 27       5.4968101851851863e+01
69 34       4.2067361111111108e+00
69 35      -1.6826944444444443e+01
69 36       2.0472858796296297e+01
69 37       1.1102230246251565e-15
69 38      -6.7307777777777773e+01
69 39       8.0208726851851878e+01
69 40      -4.2067361111111108e+00
69 41      -1.6826944444444447e+01
69 42       2.0472858796296308e+01
69 49       3.3306690738754696e-16
69 50      -4.4408920985006262e-16
69 51      -1.2339675925925928e+01
69 52       0.0000000000000000e+00
69 53      -3.5527136788005009e-15
69 54      -5.6089537037037019e+01
69 55       5.5511151231257827e-16
69 56      -2.6645352591003757e-15
69 57      -1.2339675925925929e+01
69 64       2.2204460492503131e-16
69 65      -3.5527136788005009e-15
69 66      -1.5705203703703702e+02
69 67       3.5527136788005009e-15
69 68       2.1316282072803006e-14
69 70       4.4408920985006262e-16
69 71       3.5527136788005009e-15
69 72      -1.5705203703703711e+02
69 79      -2.2204460492503131e-16
69 80      -8.8817841970012523e-16
69 81      -1.2339675925925928e+01
69 82       0.0000000000000000e+00
69 83      -1.7763568394002505e-15
69 84      -5.6089537037037019e+01
69 85       2.2204460492503131e-16
69 86      -1.7763568394002505e-15
69 87      -1.2339675925925931e+01
69 94      -4.2067361111111117e+00
69 95      -1.6826944444444447e+01
69 96       2.0472858796296297e+01
69 97       0.0000000000000000e+00
69 98      -6.7307777777777801e+01
69 99       8.0208726851851878e+01
69 100       4.2067361111111108e+00
69 101      -1.6826944444444450e+01
69 102       2.0472858796296300e+01
69 109      -1.6826944444444443e+01
69 110       0.0000000000000000e+00
69 111       5.4968101851851856e+01
69 112       0.0000000000000000e+00
69 113      -5.3290705182007514e-15
69 114       2.1314157407407413e+02
69 115       1.6826944444444443e+01
69 116      -2.2204460492503131e-15
69 117       5.4968101851851863e+01
69 124      -4.2067361111111117e+00
69 125       1.6826944444444447e+01
69 126       2.0472858796296293e+01
69 127      -1.1102230246251565e-15
69 128       6.7307777777777787e+01
69 129       8.0208726851851878e+01
69 130       4.2067361111111108e+00
69 131       1.6826944444444450e+01
69 132       2.0472858796296308e+01
70 70      -3.1859259259259250e+02
70 7       9.9560185185185190e+00
70 8       4.2067361111111108e+00
70 9       4.2067361111111117e+00
70 10       3.3934629629629626e+01
70 11       4.4408920985006262e-16
70 12       4.4408920985006262e-16
70 13       9.9560185185185155e+00
70 14      -4.2067361111111108e+00
70 15      -4.2067361111111117e+00
70 22       1.2900740740740741e+01
70 23       1.1102230246251565e-16
70 24       1.6826944444444440e+01
70 25       2.8045185185185193e+01
70 26       0.0000000000000000e+00
70 27       1.7763568394002505e-15
70 28       1.2900740740740737e+01
70 29      -4.4408920985006262e-16
70 30      -1.6826944444444443e+01
70 37       9.9560185185185226e+00
70 38      -4.2067361111111117e+00
70 39       4.2067361111111117e+00
70 40       3.3934629629629626e+01
70 41      -4.4408920985006262e-16
70 42       7.7715611723760958e-16
70 43       9.9560185185185155e+00
70 44       4.2067361111111108e+00
70 45      -4.2067361111111108e+00
70 52       1.2900740740740737e+01
70 53       1.6826944444444443e+01
70 54       2.2204460492503131e-16
70 55       2.8045185185185193e+01
70 56       1.7763568394002505e-15
70 57       8.8817841970012523e-16
70 58       1.2900740740740737e+01
70 59      -1.6826944444444436e+01
70 60       2.2204460492503131e-16
70 67      -5.6090370370370394e+01
70 68       4.4408920985006262e-16
70 69       4.4408920985006262e-16
70 71       5.3290705182007514e-15
70 72       1.7763568394002505e-15
70 73      -5.6090370370370366e+01
70 74      -1.1102230246251565e-15
70 75       6.6613381477509392e-16
70 82       1.2900740740740742e+01
70 83      -1.6826944444444440e+01
70 84      -1.1102230246251565e-16
70 85       2.8045185185185193e+01
70 86      -1.3322676295501878e-15
70 87       0.0000000000000000e+00
70 88       1.2900740740740734e+01
70 89       1.6826944444444443e+01
70 90       2.2204460492503131e-16
70 97       9.9560185185185226e+00
70 98       4.2067361111111108e+00
70 99      -4.2067361111111108e+00
70 100       3.3934629629629626e+01
70 101      -7.7715611723760958e-16
70 102       2.2204460492503131e-16
70 103       9.9560185185185155e+00
70 104      -4.2067361111111108e+00
70 105       4.2067361111111108e+00
70 112       1.2900740740740737e+01
70 113      -2.2204460492503131e-16
70 114      -1.6826944444444443e+01
70 115       2.8045185185185190e+01
70 116       2.6645352591003757e-15
70 117      -4.4408920985006262e-16
70 118       1.2900740740740737e+01
70 119       1.1102230246251565e-16
70 120       1.6826944444444443e+01
70 127       9.9560185185185226e+00
70 128      -4.2067361111111108e+00
70 129      -4.2067361111111108e+00
70 130       3.3934629629629626e+01
70 131      -4.4408920985006262e-16
70 132      -6.6613381477509392e-16
70 133       9.9560185185185155e+00
70 134       4.2067361111111099e+00
70 135       4.2067361111111099e+00
71 71      -6.5513148148148161e+02
71 7       4.2067361111111108e+00
71 8       2.0472858796296300e+01
71 9       1.6826944444444450e+01
71 10      -1.1102230246251565e-16
71 11       8.0208726851851864e+01
71 12       6.7307777777777773e+01
71 13      -4.2067361111111108e+00
71 14       2.0472858796296290e+01
71 15       1.6826944444444440e+01
71 22       2.2204460492503131e-16
71 23      -1.2339675925925931e+01
71 24      -2.6645352591003757e-15
71 25       0.0000000000000000e+00
71 26      -5.6089537037037033e+01
71 27      -5.3290705182007514e-15
71 28       0.0000000000000000e+00
71 29      -1.2339675925925921e+01
71 30      -8.8817841970012523e-16
71 37      -4.2067361111111117e+00
71 38       2.0472858796296300e+01
71 39      -1.6826944444444450e+01
71 40      -3.3306690738754696e-16
71 41       8.0208726851851864e+01
71 42      -6.7307777777777773e+01
71 43       4.2067361111111108e+00
71 44       2.0472858796296290e+01
71 45      -1.6826944444444443e+01
71 52       1.6826944444444443e+01
71 53       5.4968101851851870e+01
71 54       0.0000000000000000e+00
71 55       2.2204460492503131e-15
71 56       2.1314157407407413e+02
71 57      -1.7763568394002505e-15
71 58      -1.6826944444444440e+01
71 59       5.4968101851851841e+01
71 60      -8.8817841970012523e-16
71 67       0.0000000000000000e+00
71 68      -1.5705203703703705e+02
71 69       3.5527136788005009e-15
71 70       5.3290705182007514e-15
71 72       7.1054273576010019e-15
71 73      -8.8817841970012523e-16
71 74      -1.5705203703703700e+02
71 75       3.5527136788005009e-15
71 82      -1.6826944444444443e+01
71 83       5.4968101851851877e+01
71 84      -1.7763568394002505e-15
71 85      -8.8817841970012523e-16
71 86       2.1314157407407413e+02
71 87      -3.5527136788005009e-15
71 88       1.6826944444444440e+01
71 89       5.4968101851851827e+01
71 90       0.0000000000000000e+00
71 97       4.2067361111111108e+00
71 98       2.0472858796296300e+01
71 99      -1.6826944444444447e+01
71 100      -1.3322676295501878e-15
71 101       8.0208726851851850e+01
71 102      -6.7307777777777773e+01
71 103      -4.2067361111111108e+00
71 104       2.0472858796296290e+01
71 105      -1.6826944444444440e+01
71 112       0.0000000000000000e+00
71 113      -1.2339675925925931e+01
71 114       0.0000000000000000e+00
71 115       8.8817841970012523e-16
71 116      -5.6089537037037047e+01
71 117       0.0000000000000000e+00
71 118       3.3306690738754696e-16
71 119      -1.2339675925925922e+01
71 120      -1.7763568394002505e-15
71 127      -4.2067361111111126e+00
71 128       2.0472858796296308e+01
71 129       1.6826944444444450e+01
71 130      -2.2204460492503131e-16
71 131       8.0208726851851878e+01
71 132       6.7307777777777773e+01
71 133       4.2067361111111108e+00
71 134       2.0472858796296290e+01
71 135       1.6826944444444440e+01
72 72      -6.5513148148148150e+02
72 7       4.2067361111111108e+00
72 8       1.6826944444444450e+01
72 9       2.0472858796296300e+01
72 10      -5.5511151231257827e-16
72 11       6.7307777777777773e+01
72 12       8.0208726851851864e+01
72 13      -4.2067361111111108e+00
72 14       1.6826944444444440e+01
72 15       2.0472858796296293e+01
72 22       1.6826944444444443e+01
72 23      -1.7763568394002505e-15
72 24       5.4968101851851863e+01
72 25      -8.8817841970012523e-16
72 26      -3.5527136788005009e-15
72 27       2.1314157407407413e+02
72 28      -1.6826944444444443e+01
72 29      -8.8817841970012523e-16
72 30       5.4968101851851841e+01
72 37       4.2067361111111117e+00
72 38      -1.6826944444444447e+01
72 39       2.0472858796296308e+01
72 40       8.8817841970012523e-16
72 41      -6.7307777777777773e+01
72 42       8.0208726851851850e+01
72 43      -4.2067361111111099e+00
72 44      -1.6826944444444440e+01
72 45       2.0472858796296290e+01
72 52       3.3306690738754696e-16
72 53      -2.6645352591003757e-15
72 54      -1.2339675925925929e+01
72 55      -1.7763568394002505e-15
72 56      -6.2172489379008766e-15
72 57      -5.6089537037037033e+01
72 58       0.0000000000000000e+00
72 59      -2.2204460492503131e-15
72 60      -1.2339675925925922e+01
72 67       2.2204460492503131e-16
72 68       0.0000000000000000e+00
72 69      -1.5705203703703711e+02
72 70       1.7763568394002505e-15
72 71       7.1054273576010019e-15
72 73       4.4408920985006262e-16
72 74       3.5527136788005009e-15
72 75      -1.5705203703703702e+02
72 82      -3.3306690738754696e-16
72 83      -2.6645352591003757e-15
72 84      -1.2339675925925929e+01
72 85       0.0000000000000000e+00
72 86       1.7763568394002505e-15
72 87      -5.6089537037037026e+01
72 88      -1.1102230246251565e-16
72 89       0.0000000000000000e+00
72 90      -1.2339675925925924e+01
72 97      -4.2067361111111117e+00
72 98      -1.6826944444444450e+01
72 99       2.0472858796296300e+01
72 100       8.8817841970012523e-16
72 101      -6.7307777777777773e+01
72 102       8.0208726851851864e+01
72 103       4.2067361111111117e+00
72 104      -1.6826944444444443e+01
72 105       2.0472858796296290e+01
72 112      -1.6826944444444443e+01
72 113      -4.4408920985006262e-16
72 114       5.4968101851851863e+01
72 115       1.7763568394002505e-15
72 116      -1.7763568394002505e-15
72 117       2.1314157407407416e+02
72 118       1.6826944444444440e+01
72 119      -8.8817841970012523e-16
72 120       5.4968101851851841e+01
72 127      -4.2067361111111117e+00
72 128       1.6826944444444450e+01
72 129       2.0472858796296308e+01
72 130      -5.5511151231257827e-16
72 131       6.7307777777777773e+01
72 132       8.0208726851851878e+01
72 133       4.2067361111111108e+00
72 134       1.6826944444444440e+01
72 135       2.0472858796296290e+01
73 73      -1.5929629629629625e+02
73 10       9.9560185185185155e+00
73 11       4.2067361111111108e+00
73 12       4.2067361111111108e+00
73 13       1.6967314814814813e+01
73 14       8.4131944444444429e-01
73 15       8.4131944444444451e-01
73 25       1.2900740740740737e+01
73 26       3.3306690738754696e-16
73 27       1.6826944444444436e+01
73 28       1.4022592592592591e+01
73 29       8.8817841970012523e-16
73 30       3.3652777777777780e+00
73 40       9.9560185185185155e+00
73 41      -4.2067361111111108e+00
73 42       4.2067361111111108e+00
73 43       1.6967314814814813e+01
73 44      -8.4131944444444473e-01
73 45       8.4131944444444517e-01
73 55       1.2900740740740735e+01
73 56       1.6826944444444440e+01
73 57       7.7715611723760958e-16
73 58       1.4022592592592588e+01
73 59       3.3652777777777776e+00
73 60       8.8817841970012523e-16
73 70      -5.6090370370370366e+01
73 71      -8.8817841970012523e-16
73 72       4.4408920985006262e-16
73 74       0.0000000000000000e+00
73 75      -1.7763568394002505e-15
73 85       1.2900740740740737e+01
73 86      -1.6826944444444440e+01
73 87      -2.2204460492503131e-16
73 88       1.4022592592592588e+01
73 89      -3.3652777777777798e+00
73 90       8.8817841970012523e-16
73 100       9.9560185185185155e+00
73 101       4.2067361111111108e+00
73 102      -4.2067361111111099e+00
73 103       1.6967314814814813e+01
73 104       8.4131944444444418e-01
73 105      -8.4131944444444429e-01
73 115       1.2900740740740735e+01
73 116      -1.1102230246251565e-15
73 117      -1.6826944444444443e+01
73 118       1.4022592592592590e+01
73 119       8.8817841970012523e-16
73 120      -3.3652777777777789e+00
73 130       9.9560185185185155e+00
73 131      -4.2067361111111117e+00
73 132      -4.2067361111111108e+00
73 133       1.6967314814814813e+01
73 134      -8.4131944444444495e-01
73 135      -8.4131944444444495e-01
73 376       0.0000000000000000e+00
73 377       0.0000000000000000e+00
73 378       0.0000000000000000e+00
73 379       0.0000000000000000e+00
73 380       0.0000000000000000e+00
73 381       0.0000000000000000e+00
73 382       0.0000000000000000e+00
73 383       0.0000000000000000e+00
73 384       0.0000000000000000e+00
73 385       0.0000000000000000e+00
73 386       0.0000000000000000e+00
73 387       0.0000000000000000e+00
73 382       1.5256504629629626e+02
73 387       0.0000000000000000e+00
73 388       0.0000000000000000e+00
73 389       0.0000000000000000e+00
73 390       0.0000000000000000e+00
73 391       0.0000000000000000e+00
73 392       0.0000000000000000e+00
73 393       0.0000000000000000e+00
73 394       0.0000000000000000e+00
73 395       0.0000000000000000e+00
73 396       0.0000000000000000e+00
73 397       0.0000000000000000e+00
73 398       0.0000000000000000e+00
73 399       0.0000000000000000e+00
73 400       0.0000000000000000e+00
73 401       0.0000000000000000e+00
73 402       0.0000000000000000e+00
74 74      -3.2756574074074069e+02
74 382       1.5256504629629626e+02
74 387       0.0000000000000000e+00
74 388       0.0000000000000000e+00
74 389       0.0000000000000000e+00
74 390       0.0000000000000000e+00
74 391       0.0000000000000000e+00
74 392       0.0000000000000000e+00
74 393       0.0000000000000000e+00
74 394       0.0000000000000000e+00
74 395       0.0000000000000000e+00
74 396       0.0000000000000000e+00
74 397       0.0000000000000000e+00
74 398       0.0000000000000000e+00
74 399       0.0000000000000000e+00
74 400       0.0000000000000000e+00
74 401       0.0000000000000000e+00
74 402       0.0000000000000000e+00
74 44       0.0000000000000000e+00
74 45       0.0000000000000000e+00
74 55       0.0000000000000000e+00
74 56       0.0000000000000000e+00
74 57      -1.7763568394002505e-15
74 58      -3.3652777777777789e+00
74 59       1.0657078703703702e+02
74 60      -8.8817841970012523e-16
74 70      -1.1102230246251565e-15
74 71      -1.5705203703703700e+02
74 72       3.5527136788005009e-15
74 73       0.0000000000000000e+00
74 75       2.1316282072803006e-14
74 85      -1.6826944444444436e+01
74 86       5.4968101851851848e+01
74 87      -8.8817841970012523e-16
74 88       3.3652777777777771e+00
74 89       1.0657078703703702e+02
74 90      -4.4408920985006262e-15
74 100       4.2067361111111108e+00
74 101       2.0472858796296286e+01
74 102      -1.6826944444444440e+01
74 103      -8.4131944444444495e-01
74 104       4.0104363425925925e+01
74 105      -3.3653888888888886e+01
74 115      -6.6613381477509392e-16
74 116      -1.2339675925925924e+01
74 117       2.6645352591003757e-15
74 118       8.8817841970012523e-16
74 119      -2.8044768518518509e+01
74 120       2.6645352591003757e-15
74 130      -4.2067361111111117e+00
74 131       2.0472858796296297e+01
74 132       1.6826944444444440e+01
74 133       8.4131944444444406e-01
74 134       4.0104363425925925e+01
74 135       3.3653888888888893e+01
74 376       0.0000000000000000e+00
74 377       0.0000000000000000e+00
74 378       0.0000000000000000e+00
74 379       0.0000000000000000e+00
74 380       0.0000000000000000e+00
74 381       0.0000000000000000e+00
74 383       0.0000000000000000e+00
74 384       0.0000000000000000e+00
74 385       0.0000000000000000e+00
74 386       0.0000000000000000e+00
74 387       0.0000000000000000e+00
74 382       3.0288583333333338e+02
74 387       0.0000000000000000e+00
74 388       0.0000000000000000e+00
74 389       0.0000000000000000e+00
74 390       0.0000000000000000e+00
74 391       0.0000000000000000e+00
74 392       0.0000000000000000e+00
74 393       0.0000000000000000e+00
74 394       0.0000000000000000e+00
74 395       0.0000000000000000e+00
74 396       0.0000000000000000e+00
74 397       0.0000000000000000e+00
74 398       0.0000000000000000e+00
74 399       0.0000000000000000e+00
74 400       0.0000000000000000e+00
74 401       0.0000000000000000e+00
74 402       0.0000000000000000e+00
75 75      -3.2756574074074069e+02
75 382       3.0288583333333338e+02
75 387       0.0000000000000000e+00
75 388       0.0000000000000000e+00
75 389       0.0000000000000000e+00
75 390       0.0000000000000000e+00
75 391       0.0000000000000000e+00
75 392       0.0000000000000000e+00
75 393       0.0000000000000000e+00
75 394       0.0000000000000000e+00
75 395       0.0000000000000000e+00
75 396       0.0000000000000000e+00
75 397       0.0000000000000000e+00
75 398       0.0000000000000000e+00
75 399       0.0000000000000000e+00
75 400       0.0000000000000000e+00
75 401       0.0000000000000000e+00
75 402       0.0000000000000000e+00
75 44       0.0000000000000000e+00
75 45       0.0000000000000000e+00
75 55       0.0000000000000000e+00
75 56       0.0000000000000000e+00
75 57      -1.2339675925925926e+01
75 58       8.8817841970012523e-16
75 59      -4.4408920985006262e-15
75 60      -2.8044768518518513e+01
75 70       6.6613381477509392e-16
75 71       3.5527136788005009e-15
75 72      -1.5705203703703702e+02
75 73      -1.7763568394002505e-15
75 74       2.1316282072803006e-14
75 85      -2.2204460492503131e-16
75 86      -8.8817841970012523e-16
75 87      -1.2339675925925921e+01
75 88       8.8817841970012523e-16
75 89       8.8817841970012523e-16
75 90      -2.8044768518518513e+01
75 100      -4.2067361111111117e+00
75 101      -1.6826944444444443e+01
75 102       2.0472858796296290e+01
75 103       8.4131944444444462e-01
75 104      -3.3653888888888886e+01
75 105       4.0104363425925925e+01
75 115      -1.6826944444444440e+01
75 116       2.6645352591003757e-15
75 117       5.4968101851851841e+01
75 118       3.3652777777777780e+00
75 119      -8.8817841970012523e-16
75 120       1.0657078703703704e+02
75 130      -4.2067361111111117e+00
75 131       1.6826944444444440e+01
75 132       2.0472858796296290e+01
75 133       8.4131944444444418e-01
75 134       3.3653888888888886e+01
75 135       4.0104363425925925e+01
75 376       0.0000000000000000e+00
75 377       0.0000000000000000e+00
75 378       0.0000000000000000e+00
75 379       0.0000000000000000e+00
75 380       0.0000000000000000e+00
75 381       0.0000000000000000e+00
75 383       0.0000000000000000e+00
75 384       0.0000000000000000e+00
75 385       0.0000000000000000e+00
75 386       0.0000000000000000e+00
75 387       0.0000000000000000e+00
75 388      -4.7676203703703685e+01
75 389       0.0000000000000000e+00
75 390       0.0000000000000000e+00
75 391       0.0000000000000000e+00
75 392       0.0000000000000000e+00
75 393       0.0000000000000000e+00
75 394       0.0000000000000000e+00
75 395       0.0000000000000000e+00
75 396       0.0000000000000000e+00
75 397       0.0000000000000000e+00
75 398       0.0000000000000000e+00
75 399       0.0000000000000000e+00
75 400       0.0000000000000000e+00
75 401       0.0000000000000000e+00
75 402       0.0000000000000000e+00
76 76       0.0000000000000000e+00
76 388      -4.7676203703703685e+01
76 389       0.0000000000000000e+00
76 390       0.0000000000000000e+00
76 391       0.0000000000000000e+00
76 392       0.0000000000000000e+00
76 393       0.0000000000000000e+00
76 394       0.0000000000000000e+00
76 395       0.0000000000000000e+00
76 396       0.0000000000000000e+00
76 397       0.0000000000000000e+00
76 398       0.0000000000000000e+00
76 399       0.0000000000000000e+00
76 400       0.0000000000000000e+00
76 401       0.0000000000000000e+00
76 402       0.0000000000000000e+00
76 64       0.0000000000000000e+00
76 65       0.0000000000000000e+00
76 66       0.0000000000000000e+00
76 77       1.6826944444444443e+01
76 78       0.0000000000000000e+00
76 79      -2.8045185185185183e+01
76 80       3.3652777777777789e+00
76 81      -2.2204460492503131e-16
76 106       1.6967314814814813e+01
76 107      -8.4131944444444473e-01
76 108       8.4131944444444517e-01
76 109       9.9560185185185155e+00
76 110      -4.2067361111111108e+00
76 111       4.2067361111111108e+00
76 121       7.0112962962962957e+00
76 122       4.2067361111111126e+00
76 123       1.6826388888888888e+00
76 124       6.4503703703703685e+00
76 125       8.4131944444444451e-01
76 126       8.4134722222222216e+00
77 77      -1.6378287037037040e+02
77 16       1.0913194444444443e+00
77 17       4.0104363425925925e+01
77 18       3.3653888888888879e+01
77 19      -4.2067361111111108e+00
77 20       2.0472858796296293e+01
77 21       1.6826944444444443e+01
77 31       4.2067361111111108e+00
77 32      -1.4022384259259253e+01
77 33       6.7305555555555570e+00
77 34      -8.4131944444444406e-01
77 35      -6.1698379629629621e+00
77 36       3.3652777777777780e+00
77 61       3.3652777777777785e+00
77 62       1.0657078703703705e+02
77 63       2.6645352591003757e-15
77 64      -1.6826944444444440e+01
77 65       5.4968101851851856e+01
77 66       8.8817841970012523e-16
77 76       1.6826944444444443e+01
77 78      -7.1054273576010019e-15
77 79      -3.3652777777777771e+00
77 80      -7.8526018518518498e+01
77 81       0.0000000000000000e+00
77 106       8.4131944444444406e-01
77 107       4.0104363425925932e+01
77 108      -3.3653888888888879e+01
77 109      -4.2067361111111117e+00
77 110       2.0472858796296290e+01
77 111      -1.6826944444444443e+01
77 121       4.2067361111111117e+00
77 122      -1.4022384259259264e+01
77 123      -6.7305555555555552e+00
77 124      -8.4131944444444429e-01
77 125      -6.1698379629629638e+00
77 126      -3.3652777777777789e+00
78 78      -1.6378287037037035e+02
78 16       5.9131944444444429e-01
78 17       3.3653888888888879e+01
78 18       4.0104363425925932e+01
78 19      -4.2067361111111099e+00
78 20       1.6826944444444440e+01
78 21       2.0472858796296290e+01
78 31       1.6826388888888892e+00
78 32      -6.7305555555555552e+00
78 33       5.3285393518518532e+01
78 34      -8.4134722222222216e+00
78 35      -3.3652777777777771e+00
78 36       2.7484050925925928e+01
78 61       0.0000000000000000e+00
78 62       8.8817841970012523e-16
78 63      -2.8044768518518509e+01
78 64       0.0000000000000000e+00
78 65      -4.4408920985006262e-16
78 66      -1.2339675925925924e+01
78 76       0.0000000000000000e+00
78 77      -7.1054273576010019e-15
78 79      -4.4408920985006262e-16
78 80       0.0000000000000000e+00
78 81      -7.8526018518518526e+01
78 106      -8.4131944444444429e-01
78 107      -3.3653888888888886e+01
78 108       4.0104363425925932e+01
78 109       4.2067361111111108e+00
78 110      -1.6826944444444447e+01
78 111       2.0472858796296290e+01
78 121      -1.6826388888888890e+00
78 122       6.7305555555555570e+00
78 123       5.3285393518518525e+01
78 124       8.4134722222222216e+00
78 125       3.3652777777777780e+00
78 126       2.7484050925925924e+01
79 79      -1.5929629629629625e+02
79 16       9.7060185185185137e+00
79 17       4.2067361111111099e+00
79 18       4.2067361111111108e+00
79 19       3.3934629629629626e+01
79 20      -6.6613381477509392e-16
79 21      -9.9920072216264089e-16
79 22       9.9560185185185190e+00
79 23      -4.2067361111111108e+00
79 24      -4.2067361111111117e+00
79 31       6.4503703703703685e+00
79 32      -8.4131944444444406e-01
79 33       8.4134722222222216e+00
79 34       1.4022592592592595e+01
79 35       0.0000000000000000e+00
79 36      -2.2204460492503131e-16
79 37       6.4503703703703694e+00
79 38       8.4131944444444451e-01
79 39      -8.4134722222222234e+00
79 61       1.2900740740740737e+01
79 62       1.6826944444444440e+01
79 63       0.0000000000000000e+00
79 64       2.8045185185185183e+01
79 65      -1.9984014443252818e-15
79 66       0.0000000000000000e+00
79 67       1.2900740740740737e+01
79 68      -1.6826944444444436e+01
79 69      -2.2204460492503131e-16
79 76      -2.8045185185185183e+01
79 77      -3.3652777777777771e+00
79 78      -4.4408920985006262e-16
79 80       3.5527136788005009e-15
79 81       0.0000000000000000e+00
79 82      -2.8045185185185183e+01
79 83       3.3652777777777789e+00
79 84      -2.2204460492503131e-16
79 106       9.9560185185185155e+00
79 107       4.2067361111111108e+00
79 108      -4.2067361111111108e+00
79 109       3.3934629629629626e+01
79 110      -1.5543122344752192e-15
79 111       1.5543122344752192e-15
79 112       9.9560185185185155e+00
79 113      -4.2067361111111108e+00
79 114       4.2067361111111108e+00
79 121       6.4503703703703685e+00
79 122      -8.4131944444444495e-01
79 123      -8.4134722222222216e+00
79 124       1.4022592592592593e+01
79 125       1.7763568394002505e-15
79 126       2.2204460492503131e-16
79 127       6.4503703703703685e+00
79 128       8.4131944444444473e-01
79 129       8.4134722222222216e+00
80 80      -3.2756574074074075e+02
80 16       4.2067361111111099e+00
80 17       2.0472858796296290e+01
80 18       1.6826944444444443e+01
80 19      -2.2204460492503131e-16
80 20       8.0208726851851864e+01
80 21       6.7307777777777773e+01
80 22      -4.2067361111111108e+00
80 23       2.0472858796296297e+01
80 24       1.6826944444444447e+01
80 31       8.4131944444444451e-01
80 32      -6.1698379629629621e+00
80 33       3.3652777777777780e+00
80 34       0.0000000000000000e+00
80 35      -2.8044768518518509e+01
80 36       1.3461111111111116e+01
80 37      -8.4131944444444406e-01
80 38      -6.1698379629629621e+00
80 39       3.3652777777777789e+00
80 61       1.6826944444444443e+01
80 62       5.4968101851851848e+01
80 63       8.8817841970012523e-16
80 64      -8.8817841970012523e-16
80 65       2.1314157407407410e+02
80 66       1.7763568394002505e-15
80 67      -1.6826944444444443e+01
80 68       5.4968101851851856e+01
80 69      -8.8817841970012523e-16
80 76       3.3652777777777789e+00
80 77      -7.8526018518518498e+01
80 78       0.0000000000000000e+00
80 79       3.5527136788005009e-15
80 81       0.0000000000000000e+00
80 82      -3.3652777777777771e+00
80 83      -7.8526018518518498e+01
80 84       0.0000000000000000e+00
80 106       4.2067361111111099e+00
80 107       2.0472858796296290e+01
80 108      -1.6826944444444440e+01
80 109      -1.9984014443252818e-15
80 110       8.0208726851851878e+01
80 111      -6.7307777777777773e+01
80 112      -4.2067361111111117e+00
80 113       2.0472858796296293e+01
80 114      -1.6826944444444443e+01
80 121       8.4131944444444429e-01
80 122      -6.1698379629629647e+00
80 123      -3.3652777777777771e+00
80 124      -8.8817841970012523e-16
80 125      -2.8044768518518520e+01
80 126      -1.3461111111111112e+01
80 127      -8.4131944444444429e-01
80 128      -6.1698379629629647e+00
80 129      -3.3652777777777780e+00
81 81      -3.2756574074074069e+02
81 16       4.2067361111111099e+00
81 17       1.6826944444444440e+01
81 18       2.0472858796296290e+01
81 19      -4.4408920985006262e-16
81 20       6.7307777777777773e+01
81 21       8.0208726851851878e+01
81 22      -4.2067361111111108e+00
81 23       1.6826944444444440e+01
81 24       2.0472858796296297e+01
81 31       8.4134722222222216e+00
81 32      -3.3652777777777780e+00
81 33       2.7484050925925928e+01
81 34      -2.2204460492503131e-16
81 35      -1.3461111111111112e+01
81 36       1.0657078703703705e+02
81 37      -8.4134722222222216e+00
81 38      -3.3652777777777771e+00
81 39       2.7484050925925924e+01
81 61       1.1102230246251565e-16
81 62      -4.4408920985006262e-16
81 63      -1.2339675925925926e+01
81 64       8.8817841970012523e-16
81 65      -8.8817841970012523e-16
81 66      -5.6089537037037026e+01
81 67      -2.2204460492503131e-16
81 68      -4.4408920985006262e-16
81 69      -1.2339675925925928e+01
81 76      -2.2204460492503131e-16
81 77       0.0000000000000000e+00
81 78      -7.8526018518518526e+01
81 79       0.0000000000000000e+00
81 80       0.0000000000000000e+00
81 82      -4.4408920985006262e-16
81 83       0.0000000000000000e+00
81 84      -7.8526018518518526e+01
81 106      -4.2067361111111108e+00
81 107      -1.6826944444444447e+01
81 108       2.0472858796296290e+01
81 109       8.8817841970012523e-16
81 110      -6.7307777777777773e+01
81 111       8.0208726851851864e+01
81 112       4.2067361111111108e+00
81 113      -1.6826944444444447e+01
81 114       2.0472858796296293e+01
81 121      -8.4134722222222234e+00
81 122       3.3652777777777780e+00
81 123       2.7484050925925924e+01
81 124      -2.2204460492503131e-16
81 125       1.3461111111111116e+01
81 126       1.0657078703703705e+02
81 127       8.4134722222222216e+00
81 128       3.3652777777777789e+00
81 129       2.7484050925925921e+01
82 82      -1.5929629629629630e+02
82 19       9.9560185185185155e+00
82 20       4.2067361111111108e+00
82 21       4.2067361111111108e+00
82 22       3.3934629629629633e+01
82 23      -8.8817841970012523e-16
82 24      -9.9920072216264089e-16
82 25       9.9560185185185226e+00
82 26      -4.2067361111111108e+00
82 27      -4.2067361111111117e+00
82 34       6.4503703703703703e+00
82 35      -8.4131944444444406e-01
82 36       8.4134722222222216e+00
82 37       1.4022592592592598e+01
82 38      -8.8817841970012523e-16
82 39      -2.2204460492503131e-16
82 40       6.4503703703703694e+00
82 41       8.4131944444444495e-01
82 42      -8.4134722222222234e+00
82 64       1.2900740740740737e+01
82 65       1.6826944444444440e+01
82 66      -2.2204460492503131e-16
82 67       2.8045185185185197e+01
82 68      -1.5543122344752192e-15
82 69       0.0000000000000000e+00
82 70       1.2900740740740742e+01
82 71      -1.6826944444444443e+01
82 72      -3.3306690738754696e-16
82 79      -2.8045185185185183e+01
82 80      -3.3652777777777771e+00
82 81      -4.4408920985006262e-16
82 83       3.5527136788005009e-15
82 84       0.0000000000000000e+00
82 85      -2.8045185185185197e+01
82 86       3.3652777777777794e+00
82 87      -2.2204460492503131e-16
82 109       9.9560185185185155e+00
82 110       4.2067361111111108e+00
82 111      -4.2067361111111108e+00
82 112       3.3934629629629633e+01
82 113      -1.3322676295501878e-15
82 114       1.7763568394002505e-15
82 115       9.9560185185185226e+00
82 116      -4.2067361111111117e+00
82 117       4.2067361111111108e+00
82 124       6.4503703703703685e+00
82 125      -8.4131944444444473e-01
82 126      -8.4134722222222216e+00
82 127       1.4022592592592595e+01
82 128       8.8817841970012523e-16
82 129       2.2204460492503131e-16
82 130       6.4503703703703685e+00
82 131       8.4131944444444473e-01
82 132       8.4134722222222234e+00
83 83      -3.2756574074074081e+02
83 19       4.3317361111111126e+00
83 20       2.0472858796296293e+01
83 21       1.6826944444444447e+01
83 22      -8.8817841970012523e-16
83 23       8.0208726851851878e+01
83 24       6.7307777777777773e+01
83 25      -4.2067361111111108e+00
83 26       2.0472858796296300e+01
83 27       1.6826944444444450e+01
83 34       8.4131944444444462e-01
83 35      -6.1698379629629629e+00
83 36       3.3652777777777789e+00
83 37       0.0000000000000000e+00
83 38      -2.8044768518518516e+01
83 39       1.3461111111111117e+01
83 40      -8.4131944444444406e-01
83 41      -6.1698379629629656e+00
83 42       3.3652777777777794e+00
83 64       1.6826944444444443e+01
83 65       5.4968101851851856e+01
83 66       0.0000000000000000e+00
83 67      -6.6613381477509392e-16
83 68       2.1314157407407413e+02
83 69      -1.7763568394002505e-15
83 70      -1.6826944444444440e+01
83 71       5.4968101851851877e+01
83 72      -2.6645352591003757e-15
83 79       3.3652777777777789e+00
83 80      -7.8526018518518498e+01
83 81       0.0000000000000000e+00
83 82       3.5527136788005009e-15
83 84       0.0000000000000000e+00
83 85      -3.3652777777777771e+00
83 86      -7.8526018518518526e+01
83 87       3.5527136788005009e-15
83 109       4.2067361111111108e+00
83 110       2.0472858796296290e+01
83 111      -1.6826944444444443e+01
83 112      -1.1102230246251565e-15
83 113       8.0208726851851878e+01
83 114      -6.7307777777777773e+01
83 115      -4.2067361111111117e+00
83 116       2.0472858796296308e+01
83 117      -1.6826944444444447e+01
83 124       8.4131944444444406e-01
83 125      -6.1698379629629638e+00
83 126      -3.3652777777777763e+00
83 127       0.0000000000000000e+00
83 128      -2.8044768518518524e+01
83 129      -1.3461111111111112e+01
83 130      -8.4131944444444451e-01
83 131      -6.1698379629629683e+00
83 132      -3.3652777777777798e+00
84 84      -3.2756574074074075e+02
84 19       4.0817361111111081e+00
84 20       1.6826944444444440e+01
84 21       2.0472858796296293e+01
84 22      -1.1102230246251565e-15
84 23       6.7307777777777773e+01
84 24       8.0208726851851878e+01
84 25      -4.2067361111111099e+00
84 26       1.6826944444444450e+01
84 27       2.0472858796296308e+01
84 34       8.4134722222222216e+00
84 35      -3.3652777777777780e+00
84 36       2.7484050925925924e+01
84 37       2.2204460492503131e-16
84 38      -1.3461111111111112e+01
84 39       1.0657078703703706e+02
84 40      -8.4134722222222216e+00
84 41      -3.3652777777777789e+00
84 42       2.7484050925925928e+01
84 64      -1.1102230246251565e-16
84 65       0.0000000000000000e+00
84 66      -1.2339675925925928e+01
84 67       8.8817841970012523e-16
84 68      -3.5527136788005009e-15
84 69      -5.6089537037037019e+01
84 70      -1.1102230246251565e-16
84 71      -1.7763568394002505e-15
84 72      -1.2339675925925929e+01
84 79      -2.2204460492503131e-16
84 80       0.0000000000000000e+00
84 81      -7.8526018518518526e+01
84 82       0.0000000000000000e+00
84 83       0.0000000000000000e+00
84 85       2.2204460492503131e-16
84 86       3.5527136788005009e-15
84 87      -7.8526018518518541e+01
84 109      -4.2067361111111117e+00
84 110      -1.6826944444444447e+01
84 111       2.0472858796296293e+01
84 112       8.8817841970012523e-16
84 113      -6.7307777777777801e+01
84 114       8.0208726851851878e+01
84 115       4.2067361111111108e+00
84 116      -1.6826944444444450e+01
84 117       2.0472858796296308e+01
84 124      -8.4134722222222234e+00
84 125       3.3652777777777798e+00
84 126       2.7484050925925921e+01
84 127      -6.6613381477509392e-16
84 128       1.3461111111111123e+01
84 129       1.0657078703703706e+02
84 130       8.4134722222222216e+00
84 131       3.3652777777777798e+00
84 132       2.7484050925925928e+01
85 85      -1.5929629629629628e+02
85 22       9.8310185185185226e+00
85 23       4.2067361111111108e+00
85 24       4.2067361111111108e+00
85 25       3.3934629629629626e+01
85 26      -3.3306690738754696e-16
85 27      -6.6613381477509392e-16
85 28       9.9560185185185155e+00
85 29      -4.2067361111111108e+00
85 30      -4.2067361111111117e+00
85 37       6.4503703703703694e+00
85 38      -8.4131944444444429e-01
85 39       8.4134722222222216e+00
85 40       1.4022592592592598e+01
85 41       0.0000000000000000e+00
85 42       4.4408920985006262e-16
85 43       6.4503703703703676e+00
85 44       8.4131944444444429e-01
85 45      -8.4134722222222216e+00
85 67       1.2900740740740741e+01
85 68       1.6826944444444443e+01
85 69       2.2204460492503131e-16
85 70       2.8045185185185193e+01
85 71      -8.8817841970012523e-16
85 72       0.0000000000000000e+00
85 73       1.2900740740740737e+01
85 74      -1.6826944444444436e+01
85 75      -2.2204460492503131e-16
85 82      -2.8045185185185197e+01
85 83      -3.3652777777777771e+00
85 84       2.2204460492503131e-16
85 86       1.7763568394002505e-15
85 87      -1.7763568394002505e-15
85 88      -2.8045185185185183e+01
85 89       3.3652777777777780e+00
85 90      -4.4408920985006262e-16
85 112       9.9560185185185208e+00
85 113       4.2067361111111108e+00
85 114      -4.2067361111111108e+00
85 115       3.3934629629629626e+01
85 116      -1.2212453270876722e-15
85 117       1.3322676295501878e-15
85 118       9.9560185185185155e+00
85 119      -4.2067361111111117e+00
85 120       4.2067361111111108e+00
85 127       6.4503703703703685e+00
85 128      -8.4131944444444495e-01
85 129      -8.4134722222222216e+00
85 130       1.4022592592592591e+01
85 131       8.8817841970012523e-16
85 132       0.0000000000000000e+00
85 133       6.4503703703703668e+00
85 134       8.4131944444444473e-01
85 135       8.4134722222222216e+00
86 86      -3.2756574074074081e+02
86 22       4.3317361111111108e+00
86 23       2.0472858796296300e+01
86 24       1.6826944444444450e+01
86 25      -4.4408920985006262e-16
86 26       8.0208726851851864e+01
86 27       6.7307777777777773e+01
86 28      -4.2067361111111108e+00
86 29       2.0472858796296290e+01
86 30       1.6826944444444440e+01
86 37       8.4131944444444484e-01
86 38      -6.1698379629629656e+00
86 39       3.3652777777777785e+00
86 40       8.8817841970012523e-16
86 41      -2.8044768518518513e+01
86 42       1.3461111111111114e+01
86 43      -8.4131944444444451e-01
86 44      -6.1698379629629621e+00
86 45       3.3652777777777763e+00
86 67       1.6826944444444443e+01
86 68       5.4968101851851870e+01
86 69      -1.7763568394002505e-15
86 70      -1.3322676295501878e-15
86 71       2.1314157407407413e+02
86 72       1.7763568394002505e-15
86 73      -1.6826944444444440e+01
86 74       5.4968101851851848e+01
86 75      -8.8817841970012523e-16
86 82       3.3652777777777794e+00
86 83      -7.8526018518518526e+01
86 84       3.5527136788005009e-15
86 85       1.7763568394002505e-15
86 87       0.0000000000000000e+00
86 88      -3.3652777777777780e+00
86 89      -7.8526018518518498e+01
86 90       3.5527136788005009e-15
86 112       4.2067361111111108e+00
86 113       2.0472858796296300e+01
86 114      -1.6826944444444447e+01
86 115      -1.5543122344752192e-15
86 116       8.0208726851851850e+01
86 117      -6.7307777777777773e+01
86 118      -4.2067361111111117e+00
86 119       2.0472858796296290e+01
86 120      -1.6826944444444440e+01
86 127       8.4131944444444451e-01
86 128      -6.1698379629629683e+00
86 129      -3.3652777777777789e+00
86 130       0.0000000000000000e+00
86 131      -2.8044768518518527e+01
86 132      -1.3461111111111116e+01
86 133      -8.4131944444444440e-01
86 134      -6.1698379629629638e+00
86 135      -3.3652777777777807e+00
87 87      -3.2756574074074075e+02
87 22       4.0817361111111108e+00
87 23       1.6826944444444450e+01
87 24       2.0472858796296308e+01
87 25      -1.1102230246251565e-15
87 26       6.7307777777777773e+01
87 27       8.0208726851851850e+01
87 28      -4.2067361111111099e+00
87 29       1.6826944444444440e+01
87 30       2.0472858796296290e+01
87 37       8.4134722222222234e+00
87 38      -3.3652777777777789e+00
87 39       2.7484050925925928e+01
87 40       4.4408920985006262e-16
87 41      -1.3461111111111114e+01
87 42       1.0657078703703706e+02
87 43      -8.4134722222222216e+00
87 44      -3.3652777777777789e+00
87 45       2.7484050925925921e+01
87 67      -3.3306690738754696e-16
87 68      -1.7763568394002505e-15
87 69      -1.2339675925925931e+01
87 70       0.0000000000000000e+00
87 71      -3.5527136788005009e-15
87 72      -5.6089537037037026e+01
87 73      -2.2204460492503131e-16
87 74      -8.8817841970012523e-16
87 75      -1.2339675925925921e+01
87 82      -2.2204460492503131e-16
87 83       3.5527136788005009e-15
87 84      -7.8526018518518541e+01
87 85      -1.7763568394002505e-15
87 86       0.0000000000000000e+00
87 88      -2.2204460492503131e-16
87 89       3.5527136788005009e-15
87 90      -7.8526018518518498e+01
87 112      -4.2067361111111108e+00
87 113      -1.6826944444444450e+01
87 114       2.0472858796296300e+01
87 115       8.8817841970012523e-16
87 116      -6.7307777777777773e+01
87 117       8.0208726851851850e+01
87 118       4.2067361111111108e+00
87 119      -1.6826944444444443e+01
87 120       2.0472858796296290e+01
87 127      -8.4134722222222234e+00
87 128       3.3652777777777798e+00
87 129       2.7484050925925928e+01
87 130       8.8817841970012523e-16
87 131       1.3461111111111112e+01
87 132       1.0657078703703705e+02
87 133       8.4134722222222216e+00
87 134       3.3652777777777763e+00
87 135       2.7484050925925921e+01
88 88      -7.9648148148148124e+01
88 25       9.8310185185185155e+00
88 26       4.2067361111111099e+00
88 27       4.2067361111111108e+00
88 28       1.6967314814814813e+01
88 29       8.4131944444444429e-01
88 30       8.4131944444444418e-01
88 40       6.4503703703703676e+00
88 41      -8.4131944444444440e-01
88 42       8.4134722222222216e+00
88 43       7.0112962962962957e+00
88 44      -4.2067361111111108e+00
88 45       1.6826388888888890e+00
88 70       1.2900740740740734e+01
88 71       1.6826944444444440e+01
88 72      -1.1102230246251565e-16
88 73       1.4022592592592588e+01
88 74       3.3652777777777771e+00
88 75       8.8817841970012523e-16
88 85      -2.8045185185185183e+01
88 86      -3.3652777777777780e+00
88 87      -2.2204460492503131e-16
88 89      -1.6826944444444440e+01
88 90       0.0000000000000000e+00
88 115       9.9560185185185137e+00
88 116       4.2067361111111108e+00
88 117      -4.2067361111111108e+00
88 118       1.6967314814814813e+01
88 119       8.4131944444444384e-01
88 120      -8.4131944444444384e-01
88 130       6.4503703703703676e+00
88 131      -8.4131944444444517e-01
88 132      -8.4134722222222216e+00
88 133       7.0112962962962948e+00
88 134      -4.2067361111111108e+00
88 135      -1.6826388888888895e+00
88 379       0.0000000000000000e+00
88 380       0.0000000000000000e+00
88 381       0.0000000000000000e+00
88 382       0.0000000000000000e+00
88 383       0.0000000000000000e+00
88 384       0.0000000000000000e+00
88 388       1.7275671296296292e+02
88 389       0.0000000000000000e+00
88 390       0.0000000000000000e+00
88 391       0.0000000000000000e+00
88 392       0.0000000000000000e+00
88 393       0.0000000000000000e+00
88 397       0.0000000000000000e+00
88 398       0.0000000000000000e+00
88 399       0.0000000000000000e+00
88 400       0.0000000000000000e+00
88 401       0.0000000000000000e+00
88 402       0.0000000000000000e+00
89 89      -1.6378287037037035e+02
89 388       1.7275671296296292e+02
89 389       0.0000000000000000e+00
89 390       0.0000000000000000e+00
89 391       0.0000000000000000e+00
89 392       0.0000000000000000e+00
89 393       0.0000000000000000e+00
89 397       0.0000000000000000e+00
89 398       0.0000000000000000e+00
89 399       0.0000000000000000e+00
89 400       0.0000000000000000e+00
89 401       0.0000000000000000e+00
89 402       0.0000000000000000e+00
89 70       0.0000000000000000e+00
89 71       0.0000000000000000e+00
89 72       0.0000000000000000e+00
89 73      -3.3652777777777798e+00
89 74       1.0657078703703702e+02
89 75       8.8817841970012523e-16
89 85       3.3652777777777780e+00
89 86      -7.8526018518518498e+01
89 87       3.5527136788005009e-15
89 88      -1.6826944444444440e+01
89 90       1.4210854715202004e-14
89 115       4.2067361111111099e+00
89 116       2.0472858796296286e+01
89 117      -1.6826944444444440e+01
89 118      -8.4131944444444562e-01
89 119       4.0104363425925925e+01
89 120      -3.3653888888888886e+01
89 130       8.4131944444444395e-01
89 131      -6.1698379629629656e+00
89 132      -3.3652777777777789e+00
89 133      -4.2067361111111117e+00
89 134      -1.4022384259259258e+01
89 135      -6.7305555555555596e+00
89 379       0.0000000000000000e+00
89 380       0.0000000000000000e+00
89 381       0.0000000000000000e+00
89 382       0.0000000000000000e+00
89 383       0.0000000000000000e+00
89 384       0.0000000000000000e+00
89 388       1.9182791666666662e+02
89 389       0.0000000000000000e+00
89 390       0.0000000000000000e+00
89 391       0.0000000000000000e+00
89 392       0.0000000000000000e+00
89 393       0.0000000000000000e+00
89 397       0.0000000000000000e+00
89 398       0.0000000000000000e+00
89 399       0.0000000000000000e+00
89 400       0.0000000000000000e+00
89 401       0.0000000000000000e+00
89 402       0.0000000000000000e+00
90 90      -1.6378287037037029e+02
90 388       1.9182791666666662e+02
90 389       0.0000000000000000e+00
90 390       0.0000000000000000e+00
90 391       0.0000000000000000e+00
90 392       0.0000000000000000e+00
90 393       0.0000000000000000e+00
90 397       0.0000000000000000e+00
90 398       0.0000000000000000e+00
90 399       0.0000000000000000e+00
90 400       0.0000000000000000e+00
90 401       0.0000000000000000e+00
90 402       0.0000000000000000e+00
90 70       0.0000000000000000e+00
90 71       0.0000000000000000e+00
90 72      -1.2339675925925924e+01
90 73       8.8817841970012523e-16
90 74      -4.4408920985006262e-15
90 75      -2.8044768518518513e+01
90 85      -4.4408920985006262e-16
90 86       3.5527136788005009e-15
90 87      -7.8526018518518498e+01
90 88       0.0000000000000000e+00
90 89       1.4210854715202004e-14
90 115      -4.2067361111111108e+00
90 116      -1.6826944444444443e+01
90 117       2.0472858796296290e+01
90 118       8.4131944444444529e-01
90 119      -3.3653888888888886e+01
90 120       4.0104363425925925e+01
90 130      -8.4134722222222216e+00
90 131       3.3652777777777776e+00
90 132       2.7484050925925921e+01
90 133       1.6826388888888884e+00
90 134       6.7305555555555525e+00
90 135       5.3285393518518504e+01
90 379       0.0000000000000000e+00
90 380       0.0000000000000000e+00
90 381       0.0000000000000000e+00
90 382       0.0000000000000000e+00
90 383       0.0000000000000000e+00
90 384       0.0000000000000000e+00
90 388      -1.4583240740740713e+01
90 389       0.0000000000000000e+00
90 390       0.0000000000000000e+00
90 391       0.0000000000000000e+00
90 392       0.0000000000000000e+00
90 393       0.0000000000000000e+00
90 397       0.0000000000000000e+00
90 398       0.0000000000000000e+00
90 399       0.0000000000000000e+00
90 400       0.0000000000000000e+00
90 401       0.0000000000000000e+00
90 402       0.0000000000000000e+00
91 91       0.0000000000000000e+00
91 388      -1.4583240740740713e+01
91 389       0.0000000000000000e+00
91 390       0.0000000000000000e+00
91 391       0.0000000000000000e+00
91 392       0.0000000000000000e+00
91 393       0.0000000000000000e+00
91 397       0.0000000000000000e+00
91 398       0.0000000000000000e+00
91 399       0.0000000000000000e+00
91 400       0.0000000000000000e+00
91 401       0.0000000000000000e+00
91 402       0.0000000000000000e+00
91 92      -8.4134722222222216e+00
91 93       8.4134722222222198e+00
91 94      -1.4022592592592588e+01
91 95      -1.6826388888888892e+00
91 96       1.6826388888888890e+00
91 106       7.0112962962962992e+00
91 107       1.6826388888888892e+00
91 108       4.2067361111111099e+00
91 109       6.4503703703703694e+00
91 110       8.4134722222222216e+00
91 111       8.4131944444444440e-01
92 92      -8.1891435185185188e+01
92 46      -4.2067361111111090e+00
92 47      -1.4022384259259251e+01
92 48      -6.7305555555555525e+00
92 49       8.4131944444444451e-01
92 50      -6.1698379629629621e+00
92 51      -3.3652777777777763e+00
92 61      -8.4131944444444495e-01
92 62       4.0104363425925932e+01
92 63      -3.3653888888888886e+01
92 64       4.2067361111111108e+00
92 65       2.0472858796296290e+01
92 66      -1.6826944444444447e+01
92 91      -8.4134722222222216e+00
92 93       3.3653888888888879e+01
92 94       1.6826388888888888e+00
92 95      -3.9263009259259263e+01
92 96       1.6826944444444440e+01
92 106      -1.6826388888888895e+00
92 107       5.3285393518518532e+01
92 108       6.7305555555555561e+00
92 109       8.4134722222222216e+00
92 110       2.7484050925925924e+01
92 111       3.3652777777777771e+00
93 93      -8.1891435185185188e+01
93 46       1.6826388888888899e+00
93 47       6.7305555555555570e+00
93 48       5.3285393518518525e+01
93 49      -8.4134722222222198e+00
93 50       3.3652777777777798e+00
93 51       2.7484050925925931e+01
93 61       8.4131944444444473e-01
93 62      -3.3653888888888879e+01
93 63       4.0104363425925925e+01
93 64      -4.2067361111111099e+00
93 65      -1.6826944444444440e+01
93 66       2.0472858796296293e+01
93 91       8.4134722222222198e+00
93 92       3.3653888888888879e+01
93 94      -1.6826388888888892e+00
93 95       1.6826944444444440e+01
93 96      -3.9263009259259249e+01
93 106       4.2067361111111099e+00
93 107      -6.7305555555555552e+00
93 108      -1.4022384259259256e+01
93 109      -8.4131944444444451e-01
93 110      -3.3652777777777771e+00
93 111      -6.1698379629629638e+00
94 94      -7.9648148148148124e+01
94 46       6.4503703703703703e+00
94 47       8.4131944444444484e-01
94 48       8.4134722222222180e+00
94 49       1.4022592592592595e+01
94 50       1.7763568394002505e-15
94 51       6.6613381477509392e-16
94 52       6.4503703703703676e+00
94 53      -8.4131944444444451e-01
94 54      -8.4134722222222180e+00
94 61       9.9560185185185155e+00
94 62      -4.2067361111111108e+00
94 63       4.2067361111111108e+00
94 64       3.3934629629629626e+01
94 65      -1.1102230246251565e-15
94 66       2.2204460492503131e-16
94 67       9.9560185185185155e+00
94 68       4.2067361111111108e+00
94 69      -4.2067361111111117e+00
94 91      -1.4022592592592588e+01
94 92       1.6826388888888888e+00
94 93      -1.6826388888888892e+00
94 95       0.0000000000000000e+00
94 96       0.0000000000000000e+00
94 97      -1.4022592592592591e+01
94 98      -1.6826388888888897e+00
94 99       1.6826388888888892e+00
94 106       6.4503703703703694e+00
94 107      -8.4134722222222216e+00
94 108      -8.4131944444444451e-01
94 109       1.4022592592592598e+01
94 110       6.6613381477509392e-16
94 111      -8.8817841970012523e-16
94 112       6.4503703703703712e+00
94 113       8.4134722222222216e+00
94 114       8.4131944444444440e-01
95 95      -1.6378287037037035e+02
95 46      -8.4131944444444406e-01
95 47      -6.1698379629629621e+00
95 48      -3.3652777777777771e+00
95 49       8.8817841970012523e-16
95 50      -2.8044768518518509e+01
95 51      -1.3461111111111112e+01
95 52       8.4131944444444451e-01
95 53      -6.1698379629629629e+00
95 54      -3.3652777777777789e+00
95 61      -4.2067361111111108e+00
95 62       2.0472858796296290e+01
95 63      -1.6826944444444447e+01
95 64      -6.6613381477509392e-16
95 65       8.0208726851851878e+01
95 66      -6.7307777777777773e+01
95 67       4.2067361111111108e+00
95 68       2.0472858796296290e+01
95 69      -1.6826944444444447e+01
95 91      -1.6826388888888892e+00
95 92      -3.9263009259259263e+01
95 93       1.6826944444444440e+01
95 94       0.0000000000000000e+00
95 96       6.7307777777777773e+01
95 97       1.6826388888888892e+00
95 98      -3.9263009259259263e+01
95 99       1.6826944444444443e+01
95 106      -8.4134722222222216e+00
95 107       2.7484050925925924e+01
95 108       3.3652777777777776e+00
95 109      -2.2204460492503131e-16
95 110       1.0657078703703706e+02
95 111       1.3461111111111112e+01
95 112       8.4134722222222216e+00
95 113       2.7484050925925931e+01
95 114       3.3652777777777771e+00
96 96      -1.6378287037037040e+02
96 46       8.4134722222222198e+00
96 47       3.3652777777777798e+00
96 48       2.7484050925925928e+01
96 49       6.6613381477509392e-16
96 50       1.3461111111111116e+01
96 51       1.0657078703703704e+02
96 52      -8.4134722222222198e+00
96 53       3.3652777777777789e+00
96 54       2.7484050925925928e+01
96 61       4.2067361111111108e+00
96 62      -1.6826944444444443e+01
96 63       2.0472858796296290e+01
96 64       4.4408920985006262e-16
96 65      -6.7307777777777773e+01
96 66       8.0208726851851864e+01
96 67      -4.2067361111111099e+00
96 68      -1.6826944444444443e+01
96 69       2.0472858796296297e+01
96 91       1.6826388888888890e+00
96 92       1.6826944444444440e+01
96 93      -3.9263009259259249e+01
96 94       0.0000000000000000e+00
96 95       6.7307777777777773e+01
96 97      -1.6826388888888892e+00
96 98       1.6826944444444443e+01
96 99      -3.9263009259259249e+01
96 106       8.4131944444444440e-01
96 107      -3.3652777777777771e+00
96 108      -6.1698379629629638e+00
96 109       0.0000000000000000e+00
96 110      -1.3461111111111112e+01
96 111      -2.8044768518518509e+01
96 112      -8.4131944444444429e-01
96 113      -3.3652777777777789e+00
96 114      -6.1698379629629629e+00
97 97      -7.9648148148148138e+01
97 49       6.4503703703703703e+00
97 50       8.4131944444444529e-01
97 51       8.4134722222222180e+00
97 52       1.4022592592592598e+01
97 53       8.8817841970012523e-16
97 54       1.1102230246251565e-15
97 55       6.4503703703703694e+00
97 56      -8.4131944444444473e-01
97 57      -8.4134722222222180e+00
97 64       9.9560185185185155e+00
97 65      -4.2067361111111117e+00
97 66       4.2067361111111108e+00
97 67       3.3934629629629633e+01
97 68      -6.6613381477509392e-16
97 69       0.0000000000000000e+00
97 70       9.9560185185185226e+00
97 71       4.2067361111111108e+00
97 72      -4.2067361111111117e+00
97 94      -1.4022592592592591e+01
97 95       1.6826388888888892e+00
97 96      -1.6826388888888892e+00
97 98       0.0000000000000000e+00
97 99       0.0000000000000000e+00
97 100      -1.4022592592592595e+01
97 101      -1.6826388888888895e+00
97 102       1.6826388888888895e+00
97 109       6.4503703703703712e+00
97 110      -8.4134722222222216e+00
97 111      -8.4131944444444451e-01
97 112       1.4022592592592604e+01
97 113       6.6613381477509392e-16
97 114       0.0000000000000000e+00
97 115       6.4503703703703712e+00
97 116       8.4134722222222234e+00
97 117       8.4131944444444484e-01
98 98      -1.6378287037037040e+02
98 49      -8.4131944444444384e-01
98 50      -6.1698379629629629e+00
98 51      -3.3652777777777798e+00
98 52       8.8817841970012523e-16
98 53      -2.8044768518518513e+01
98 54      -1.3461111111111119e+01
98 55       8.4131944444444495e-01
98 56      -6.1698379629629656e+00
98 57      -3.3652777777777807e+00
98 64      -4.2067361111111117e+00
98 65       2.0472858796296293e+01
98 66      -1.6826944444444447e+01
98 67      -6.6613381477509392e-16
98 68       8.0208726851851864e+01
98 69      -6.7307777777777801e+01
98 70       4.2067361111111108e+00
98 71       2.0472858796296300e+01
98 72      -1.6826944444444450e+01
98 94      -1.6826388888888897e+00
98 95      -3.9263009259259263e+01
98 96       1.6826944444444443e+01
98 97       0.0000000000000000e+00
98 99       6.7307777777777773e+01
98 100       1.6826388888888895e+00
98 101      -3.9263009259259277e+01
98 102       1.6826944444444450e+01
98 109      -8.4134722222222216e+00
98 110       2.7484050925925931e+01
98 111       3.3652777777777776e+00
98 112      -2.2204460492503131e-16
98 113       1.0657078703703709e+02
98 114       1.3461111111111112e+01
98 115       8.4134722222222216e+00
98 116       2.7484050925925935e+01
98 117       3.3652777777777776e+00
99 99      -1.6378287037037040e+02
99 49       8.4134722222222198e+00
99 50       3.3652777777777780e+00
99 51       2.7484050925925928e+01
99 52       8.8817841970012523e-16
99 53       1.3461111111111117e+01
99 54       1.0657078703703706e+02
99 55      -8.4134722222222198e+00
99 56       3.3652777777777789e+00
99 57       2.7484050925925935e+01
99 64       4.2067361111111108e+00
99 65      -1.6826944444444443e+01
99 66       2.0472858796296293e+01
99 67       6.6613381477509392e-16
99 68      -6.7307777777777773e+01
99 69       8.0208726851851878e+01
99 70      -4.2067361111111108e+00
99 71      -1.6826944444444447e+01
99 72       2.0472858796296300e+01
99 94       1.6826388888888892e+00
99 95       1.6826944444444443e+01
99 96      -3.9263009259259249e+01
99 97       0.0000000000000000e+00
99 98       6.7307777777777773e+01
99 100      -1.6826388888888892e+00
99 101       1.6826944444444450e+01
99 102      -3.9263009259259263e+01
99 109       8.4131944444444451e-01
99 110      -3.3652777777777789e+00
99 111      -6.1698379629629629e+00
99 112      -8.8817841970012523e-16
99 113      -1.3461111111111123e+01
99 114      -2.8044768518518502e+01
99 115      -8.4131944444444429e-01
99 116      -3.3652777777777816e+00
99 117      -6.1698379629629638e+00
100 100      -7.9648148148148124e+01
100 52       6.4503703703703703e+00
100 53       8.4131944444444540e-01
100 54       8.4134722222222180e+00
100 55       1.4022592592592602e+01
100 56       2.6645352591003757e-15
100 57       1.9984014443252818e-15
100 58       6.4503703703703694e+00
100 59      -8.4131944444444473e-01
100 60      -8.4134722222222180e+00
100 67       9.9560185185185226e+00
100 68      -4.2067361111111117e+00
100 69       4.2067361111111108e+00
100 70       3.3934629629629626e+01
100 71      -1.3322676295501878e-15
100 72       8.8817841970012523e-16
100 73       9.9560185185185155e+00
100 74       4.2067361111111108e+00
100 75      -4.2067361111111117e+00
100 97      -1.4022592592592595e+01
100 98       1.6826388888888895e+00
100 99      -1.6826388888888892e+00
100 101       0.0000000000000000e+00
100 102      -1.7763568394002505e-15
100 103      -1.4022592592592586e+01
100 104      -1.6826388888888895e+00
100 105       1.6826388888888890e+00
100 112       6.4503703703703712e+00
100 113      -8.4134722222222216e+00
100 114      -8.4131944444444451e-01
100 115       1.4022592592592598e+01
100 116       4.4408920985006262e-16
100 117      -8.8817841970012523e-16
100 118       6.4503703703703676e+00
100 119       8.4134722222222216e+00
100 120       8.4131944444444462e-01
101 101      -1.6378287037037040e+02
101 52      -8.4131944444444429e-01
101 53      -6.1698379629629647e+00
101 54      -3.3652777777777816e+00
101 55       2.6645352591003757e-15
101 56      -2.8044768518518509e+01
101 57      -1.3461111111111114e+01
101 58       8.4131944444444440e-01
101 59      -6.1698379629629585e+00
101 60      -3.3652777777777754e+00
101 67      -4.2067361111111117e+00
101 68       2.0472858796296300e+01
101 69      -1.6826944444444450e+01
101 70      -7.7715611723760958e-16
101 71       8.0208726851851850e+01
101 72      -6.7307777777777773e+01
101 73       4.2067361111111108e+00
101 74       2.0472858796296286e+01
101 75      -1.6826944444444443e+01
101 97      -1.6826388888888895e+00
101 98      -3.9263009259259277e+01
101 99       1.6826944444444450e+01
101 100       0.0000000000000000e+00
101 102       6.7307777777777773e+01
101 103       1.6826388888888890e+00
101 104      -3.9263009259259249e+01
101 105       1.6826944444444436e+01
101 112      -8.4134722222222234e+00
101 113       2.7484050925925935e+01
101 114       3.3652777777777780e+00
101 115       0.0000000000000000e+00
101 116       1.0657078703703706e+02
101 117       1.3461111111111110e+01
101 118       8.4134722222222216e+00
101 119       2.7484050925925917e+01
101 120       3.3652777777777754e+00
102 102      -1.6378287037037040e+02
102 52       8.4134722222222198e+00
102 53       3.3652777777777789e+00
102 54       2.7484050925925935e+01
102 55       8.8817841970012523e-16
102 56       1.3461111111111114e+01
102 57       1.0657078703703708e+02
102 58      -8.4134722222222198e+00
102 59       3.3652777777777816e+00
102 60       2.7484050925925924e+01
102 67       4.2067361111111108e+00
102 68      -1.6826944444444447e+01
102 69       2.0472858796296300e+01
102 70       2.2204460492503131e-16
102 71      -6.7307777777777773e+01
102 72       8.0208726851851864e+01
102 73      -4.2067361111111099e+00
102 74      -1.6826944444444440e+01
102 75       2.0472858796296290e+01
102 97       1.6826388888888895e+00
102 98       1.6826944444444450e+01
102 99      -3.9263009259259263e+01
102 100      -1.7763568394002505e-15
102 101       6.7307777777777773e+01
102 103      -1.6826388888888895e+00
102 104       1.6826944444444440e+01
102 105      -3.9263009259259249e+01
102 112       8.4131944444444473e-01
102 113      -3.3652777777777807e+00
102 114      -6.1698379629629638e+00
102 115      -1.7763568394002505e-15
102 116      -1.3461111111111117e+01
102 117      -2.8044768518518513e+01
102 118      -8.4131944444444440e-01
102 119      -3.3652777777777789e+00
102 120      -6.1698379629629638e+00
103 103      -3.9824074074074055e+01
103 55       6.4503703703703703e+00
103 56       8.4131944444444495e-01
103 57       8.4134722222222180e+00
103 58       7.0112962962962975e+00
103 59       4.2067361111111117e+00
103 60       1.6826388888888892e+00
103 70       9.9560185185185155e+00
103 71      -4.2067361111111108e+00
103 72       4.2067361111111117e+00
103 73       1.6967314814814813e+01
103 74      -8.4131944444444495e-01
103 75       8.4131944444444462e-01
103 100      -1.4022592592592586e+01
103 101       1.6826388888888890e+00
103 102      -1.6826388888888895e+00
103 104       8.4134722222222216e+00
103 105      -8.4134722222222198e+00
103 115       6.4503703703703676e+00
103 116      -8.4134722222222216e+00
103 117      -8.4131944444444451e-01
103 118       7.0112962962962921e+00
103 119      -1.6826388888888890e+00
103 120      -4.2067361111111108e+00
103 385       0.0000000000000000e+00
103 386       0.0000000000000000e+00
103 387       0.0000000000000000e+00
103 388      -2.6642141203703698e+01
103 389       0.0000000000000000e+00
103 390       0.0000000000000000e+00
103 394       0.0000000000000000e+00
103 395       0.0000000000000000e+00
103 396       0.0000000000000000e+00
103 397       0.0000000000000000e+00
103 398       0.0000000000000000e+00
103 399       0.0000000000000000e+00
104 104      -8.1891435185185159e+01
104 388      -2.6642141203703698e+01
104 389       0.0000000000000000e+00
104 390       0.0000000000000000e+00
104 394       0.0000000000000000e+00
104 395       0.0000000000000000e+00
104 396       0.0000000000000000e+00
104 397       0.0000000000000000e+00
104 398       0.0000000000000000e+00
104 399       0.0000000000000000e+00
104 73       0.0000000000000000e+00
104 74       4.0104363425925925e+01
104 75      -3.3653888888888886e+01
104 100      -1.6826388888888895e+00
104 101      -3.9263009259259249e+01
104 102       1.6826944444444440e+01
104 103       8.4134722222222216e+00
104 105       3.3653888888888886e+01
104 115      -8.4134722222222216e+00
104 116       2.7484050925925917e+01
104 117       3.3652777777777763e+00
104 118       1.6826388888888886e+00
104 119       5.3285393518518504e+01
104 120       6.7305555555555525e+00
104 385       0.0000000000000000e+00
104 386       0.0000000000000000e+00
104 387       0.0000000000000000e+00
104 388       1.0460744212962962e+02
104 389       0.0000000000000000e+00
104 390       0.0000000000000000e+00
104 394       0.0000000000000000e+00
104 395       0.0000000000000000e+00
104 396       0.0000000000000000e+00
104 397       0.0000000000000000e+00
104 398       0.0000000000000000e+00
104 399       0.0000000000000000e+00
105 105      -8.1891435185185173e+01
105 388       1.0460744212962962e+02
105 389       0.0000000000000000e+00
105 390       0.0000000000000000e+00
105 394       0.0000000000000000e+00
105 395       0.0000000000000000e+00
105 396       0.0000000000000000e+00
105 397       0.0000000000000000e+00
105 398       0.0000000000000000e+00
105 399       0.0000000000000000e+00
105 73       0.0000000000000000e+00
105 74      -3.3653888888888886e+01
105 75       4.0104363425925925e+01
105 100       1.6826388888888890e+00
105 101       1.6826944444444436e+01
105 102      -3.9263009259259249e+01
105 103      -8.4134722222222198e+00
105 104       3.3653888888888886e+01
105 115       8.4131944444444429e-01
105 116      -3.3652777777777789e+00
105 117      -6.1698379629629638e+00
105 118      -4.2067361111111108e+00
105 119      -6.7305555555555578e+00
105 120      -1.4022384259259262e+01
105 385       0.0000000000000000e+00
105 386       0.0000000000000000e+00
105 387       0.0000000000000000e+00
105 388       4.0385277777777773e+01
105 389       0.0000000000000000e+00
105 390       0.0000000000000000e+00
105 394       0.0000000000000000e+00
105 395       0.0000000000000000e+00
105 396       0.0000000000000000e+00
105 397       0.0000000000000000e+00
105 398       0.0000000000000000e+00
105 399       0.0000000000000000e+00
106 106      -7.9648148148148124e+01
106 388       4.0385277777777773e+01
106 389       0.0000000000000000e+00
106 390       0.0000000000000000e+00
106 394       0.0000000000000000e+00
106 395       0.0000000000000000e+00
106 396       0.0000000000000000e+00
106 397       0.0000000000000000e+00
106 398       0.0000000000000000e+00
106 399       0.0000000000000000e+00
106 64       0.0000000000000000e+00
106 65      -2.2204460492503131e-16
106 66      -1.6826944444444443e+01
106 76       1.6967314814814813e+01
106 77       8.4131944444444406e-01
106 78      -8.4131944444444429e-01
106 79       9.9560185185185155e+00
106 80       4.2067361111111099e+00
106 81      -4.2067361111111108e+00
106 91       7.0112962962962992e+00
106 92      -1.6826388888888895e+00
106 93       4.2067361111111099e+00
106 94       6.4503703703703694e+00
106 95      -8.4134722222222216e+00
106 96       8.4131944444444440e-01
106 107       0.0000000000000000e+00
106 108       1.6826944444444443e+01
106 109      -2.8045185185185176e+01
106 110      -2.2204460492503131e-16
106 111       3.3652777777777780e+00
106 121       7.0112962962962984e+00
106 122       1.6826388888888892e+00
106 123       4.2067361111111108e+00
106 124       6.4503703703703694e+00
106 125       8.4134722222222216e+00
106 126       8.4131944444444451e-01
107 107      -1.6378287037037038e+02
107 46       9.6631944444444406e-01
107 47       4.0104363425925939e+01
107 48       3.3653888888888879e+01
107 49      -4.2067361111111108e+00
107 50       2.0472858796296290e+01
107 51       1.6826944444444443e+01
107 61       8.8817841970012523e-16
107 62      -2.8044768518518516e+01
107 63       2.6645352591003757e-15
107 64      -4.4408920985006262e-16
107 65      -1.2339675925925928e+01
107 66       1.7763568394002505e-15
107 76      -8.4131944444444473e-01
107 77       4.0104363425925932e+01
107 78      -3.3653888888888886e+01
107 79       4.2067361111111108e+00
107 80       2.0472858796296290e+01
107 81      -1.6826944444444447e+01
107 91       1.6826388888888892e+00
107 92       5.3285393518518532e+01
107 93      -6.7305555555555552e+00
107 94      -8.4134722222222216e+00
107 95       2.7484050925925924e+01
107 96      -3.3652777777777771e+00
107 106       0.0000000000000000e+00
107 108      -7.1054273576010019e-15
107 109      -2.2204460492503131e-16
107 110      -7.8526018518518512e+01
107 111      -3.5527136788005009e-15
107 121      -1.6826388888888892e+00
107 122       5.3285393518518525e+01
107 123       6.7305555555555552e+00
107 124       8.4134722222222216e+00
107 125       2.7484050925925921e+01
107 126       3.3652777777777771e+00
108 108      -1.6378287037037035e+02
108 46       7.1631944444444495e-01
108 47       3.3653888888888879e+01
108 48       4.0104363425925925e+01
108 49      -4.2067361111111108e+00
108 50       1.6826944444444443e+01
108 51       2.0472858796296293e+01
108 61       3.3652777777777780e+00
108 62       8.8817841970012523e-16
108 63       1.0657078703703705e+02
108 64      -1.6826944444444443e+01
108 65       2.6645352591003757e-15
108 66       5.4968101851851856e+01
108 76       8.4131944444444517e-01
108 77      -3.3653888888888879e+01
108 78       4.0104363425925932e+01
108 79      -4.2067361111111108e+00
108 80      -1.6826944444444440e+01
108 81       2.0472858796296290e+01
108 91       4.2067361111111099e+00
108 92       6.7305555555555561e+00
108 93      -1.4022384259259256e+01
108 94      -8.4131944444444451e-01
108 95       3.3652777777777776e+00
108 96      -6.1698379629629638e+00
108 106       1.6826944444444443e+01
108 107      -7.1054273576010019e-15
108 109      -3.3652777777777780e+00
108 110      -3.5527136788005009e-15
108 111      -7.8526018518518512e+01
108 121       4.2067361111111108e+00
108 122      -6.7305555555555552e+00
108 123      -1.4022384259259256e+01
108 124      -8.4131944444444451e-01
108 125      -3.3652777777777771e+00
108 126      -6.1698379629629629e+00
109 109      -1.5929629629629628e+02
109 46       9.8310185185185137e+00
109 47       4.2067361111111108e+00
109 48       4.2067361111111108e+00
109 49       3.3934629629629626e+01
109 50      -2.2204460492503131e-16
109 51       2.2204460492503131e-16
109 52       9.9560185185185190e+00
109 53      -4.2067361111111117e+00
109 54      -4.2067361111111117e+00
109 61       1.2900740740740737e+01
109 62       6.6613381477509392e-16
109 63       1.6826944444444440e+01
109 64       2.8045185185185190e+01
109 65       8.8817841970012523e-16
109 66      -4.4408920985006262e-16
109 67       1.2900740740740737e+01
109 68      -2.2204460492503131e-16
109 69      -1.6826944444444443e+01
109 76       9.9560185185185155e+00
109 77      -4.2067361111111117e+00
109 78       4.2067361111111108e+00
109 79       3.3934629629629626e+01
109 80      -1.9984014443252818e-15
109 81       8.8817841970012523e-16
109 82       9.9560185185185155e+00
109 83       4.2067361111111108e+00
109 84      -4.2067361111111117e+00
109 91       6.4503703703703694e+00
109 92       8.4134722222222216e+00
109 93      -8.4131944444444451e-01
109 94       1.4022592592592598e+01
109 95      -2.2204460492503131e-16
109 96       0.0000000000000000e+00
109 97       6.4503703703703712e+00
109 98      -8.4134722222222216e+00
109 99       8.4131944444444451e-01
109 106      -2.8045185185185176e+01
109 107      -2.2204460492503131e-16
109 108      -3.3652777777777780e+00
109 110       0.0000000000000000e+00
109 111      -1.7763568394002505e-15
109 112      -2.8045185185185183e+01
109 113      -6.6613381477509392e-16
109 114       3.3652777777777785e+00
109 121       6.4503703703703703e+00
109 122      -8.4134722222222216e+00
109 123      -8.4131944444444451e-01
109 124       1.4022592592592597e+01
109 125       6.6613381477509392e-16
109 126       0.0000000000000000e+00
109 127       6.4503703703703703e+00
109 128       8.4134722222222216e+00
109 129       8.4131944444444451e-01
110 110      -3.2756574074074075e+02
110 46       4.2067361111111108e+00
110 47       2.0472858796296290e+01
110 48       1.6826944444444443e+01
110 49       2.2204460492503131e-16
110 50       8.0208726851851878e+01
110 51       6.7307777777777773e+01
110 52      -4.2067361111111108e+00
110 53       2.0472858796296293e+01
110 54       1.6826944444444447e+01
110 61       3.3306690738754696e-16
110 62      -1.2339675925925928e+01
110 63       8.8817841970012523e-16
110 64       1.7763568394002505e-15
110 65      -5.6089537037037019e+01
110 66       8.8817841970012523e-16
110 67       0.0000000000000000e+00
110 68      -1.2339675925925928e+01
110 69       0.0000000000000000e+00
110 76      -4.2067361111111108e+00
110 77       2.0472858796296290e+01
110 78      -1.6826944444444447e+01
110 79      -1.5543122344752192e-15
110 80       8.0208726851851878e+01
110 81      -6.7307777777777773e+01
110 82       4.2067361111111108e+00
110 83       2.0472858796296290e+01
110 84      -1.6826944444444447e+01
110 91       8.4134722222222216e+00
110 92       2.7484050925925924e+01
110 93      -3.3652777777777771e+00
110 94       6.6613381477509392e-16
110 95       1.0657078703703706e+02
110 96      -1.3461111111111112e+01
110 97      -8.4134722222222216e+00
110 98       2.7484050925925931e+01
110 99      -3.3652777777777789e+00
110 106      -2.2204460492503131e-16
110 107      -7.8526018518518512e+01
110 108      -3.5527136788005009e-15
110 109       0.0000000000000000e+00
110 111       0.0000000000000000e+00
110 112       6.6613381477509392e-16
110 113      -7.8526018518518526e+01
110 114       0.0000000000000000e+00
110 121      -8.4134722222222216e+00
110 122       2.7484050925925921e+01
110 123       3.3652777777777776e+00
110 124      -2.2204460492503131e-16
110 125       1.0657078703703706e+02
110 126       1.3461111111111110e+01
110 127       8.4134722222222216e+00
110 128       2.7484050925925928e+01
110 129       3.3652777777777771e+00
111 111      -3.2756574074074069e+02
111 46       4.2067361111111108e+00
111 47       1.6826944444444443e+01
111 48       2.0472858796296290e+01
111 49       4.4408920985006262e-16
111 50       6.7307777777777773e+01
111 51       8.0208726851851864e+01
111 52      -4.2067361111111099e+00
111 53       1.6826944444444440e+01
111 54       2.0472858796296297e+01
111 61       1.6826944444444443e+01
111 62       8.8817841970012523e-16
111 63       5.4968101851851856e+01
111 64      -8.8817841970012523e-16
111 65       1.7763568394002505e-15
111 66       2.1314157407407410e+02
111 67      -1.6826944444444443e+01
111 68       1.7763568394002505e-15
111 69       5.4968101851851856e+01
111 76       4.2067361111111108e+00
111 77      -1.6826944444444443e+01
111 78       2.0472858796296290e+01
111 79       1.5543122344752192e-15
111 80      -6.7307777777777773e+01
111 81       8.0208726851851864e+01
111 82      -4.2067361111111108e+00
111 83      -1.6826944444444443e+01
111 84       2.0472858796296293e+01
111 91       8.4131944444444440e-01
111 92       3.3652777777777771e+00
111 93      -6.1698379629629638e+00
111 94      -8.8817841970012523e-16
111 95       1.3461111111111112e+01
111 96      -2.8044768518518509e+01
111 97      -8.4131944444444451e-01
111 98       3.3652777777777776e+00
111 99      -6.1698379629629629e+00
111 106       3.3652777777777780e+00
111 107      -3.5527136788005009e-15
111 108      -7.8526018518518512e+01
111 109      -1.7763568394002505e-15
111 110       0.0000000000000000e+00
111 112      -3.3652777777777789e+00
111 113       0.0000000000000000e+00
111 114      -7.8526018518518498e+01
111 121       8.4131944444444451e-01
111 122      -3.3652777777777771e+00
111 123      -6.1698379629629629e+00
111 124       0.0000000000000000e+00
111 125      -1.3461111111111116e+01
111 126      -2.8044768518518509e+01
111 127      -8.4131944444444451e-01
111 128      -3.3652777777777798e+00
111 129      -6.1698379629629629e+00
112 112      -1.5929629629629630e+02
112 49       9.9560185185185155e+00
112 50       4.2067361111111108e+00
112 51       4.2067361111111108e+00
112 52       3.3934629629629640e+01
112 53      -3.3306690738754696e-16
112 54      -2.2204460492503131e-16
112 55       9.9560185185185226e+00
112 56      -4.2067361111111117e+00
112 57      -4.2067361111111117e+00
112 64       1.2900740740740737e+01
112 65       6.6613381477509392e-16
112 66       1.6826944444444443e+01
112 67       2.8045185185185193e+01
112 68       1.7763568394002505e-15
112 69       0.0000000000000000e+00
112 70       1.2900740740740737e+01
112 71       0.0000000000000000e+00
112 72      -1.6826944444444443e+01
112 79       9.9560185185185155e+00
112 80      -4.2067361111111117e+00
112 81       4.2067361111111108e+00
112 82       3.3934629629629633e+01
112 83      -1.1102230246251565e-15
112 84       8.8817841970012523e-16
112 85       9.9560185185185208e+00
112 86       4.2067361111111108e+00
112 87      -4.2067361111111108e+00
112 94       6.4503703703703712e+00
112 95       8.4134722222222216e+00
112 96      -8.4131944444444429e-01
112 97       1.4022592592592604e+01
112 98      -2.2204460492503131e-16
112 99      -8.8817841970012523e-16
112 100       6.4503703703703712e+00
112 101      -8.4134722222222234e+00
112 102       8.4131944444444473e-01
112 109      -2.8045185185185183e+01
112 110       6.6613381477509392e-16
112 111      -3.3652777777777789e+00
112 113       0.0000000000000000e+00
112 114      -1.7763568394002505e-15
112 115      -2.8045185185185193e+01
112 116       0.0000000000000000e+00
112 117       3.3652777777777789e+00
112 124       6.4503703703703703e+00
112 125      -8.4134722222222216e+00
112 126      -8.4131944444444451e-01
112 127       1.4022592592592604e+01
112 128       6.6613381477509392e-16
112 129       0.0000000000000000e+00
112 130       6.4503703703703712e+00
112 131       8.4134722222222234e+00
112 132       8.4131944444444451e-01
113 113      -3.2756574074074081e+02
113 49       4.2067361111111108e+00
113 50       2.0472858796296293e+01
113 51       1.6826944444444447e+01
113 52       0.0000000000000000e+00
113 53       8.0208726851851878e+01
113 54       6.7307777777777787e+01
113 55      -4.2067361111111108e+00
113 56       2.0472858796296308e+01
113 57       1.6826944444444450e+01
113 64       4.4408920985006262e-16
113 65      -1.2339675925925928e+01
113 66      -8.8817841970012523e-16
113 67       8.8817841970012523e-16
113 68      -5.6089537037037040e+01
113 69      -5.3290705182007514e-15
113 70      -2.2204460492503131e-16
113 71      -1.2339675925925931e+01
113 72      -4.4408920985006262e-16
113 79      -4.2067361111111108e+00
113 80       2.0472858796296293e+01
113 81      -1.6826944444444447e+01
113 82      -1.3322676295501878e-15
113 83       8.0208726851851878e+01
113 84      -6.7307777777777801e+01
113 85       4.2067361111111108e+00
113 86       2.0472858796296300e+01
113 87      -1.6826944444444450e+01
113 94       8.4134722222222216e+00
113 95       2.7484050925925931e+01
113 96      -3.3652777777777789e+00
113 97       6.6613381477509392e-16
113 98       1.0657078703703709e+02
113 99      -1.3461111111111123e+01
113 100      -8.4134722222222216e+00
113 101       2.7484050925925935e+01
113 102      -3.3652777777777807e+00
113 109      -6.6613381477509392e-16
113 110      -7.8526018518518526e+01
113 111       0.0000000000000000e+00
113 112       0.0000000000000000e+00
113 114      -1.4210854715202004e-14
113 115       6.6613381477509392e-16
113 116      -7.8526018518518541e+01
113 117       7.1054273576010019e-15
113 124      -8.4134722222222216e+00
113 125       2.7484050925925928e+01
113 126       3.3652777777777776e+00
113 127      -2.2204460492503131e-16
113 128       1.0657078703703709e+02
113 129       1.3461111111111112e+01
113 130       8.4134722222222216e+00
113 131       2.7484050925925935e+01
113 132       3.3652777777777776e+00
114 114      -3.2756574074074081e+02
114 49       4.2067361111111108e+00
114 50       1.6826944444444440e+01
114 51       2.0472858796296293e+01
114 52       2.2204460492503131e-16
114 53       6.7307777777777773e+01
114 54       8.0208726851851878e+01
114 55      -4.2067361111111108e+00
114 56       1.6826944444444450e+01
114 57       2.0472858796296300e+01
114 64       1.6826944444444443e+01
114 65       0.0000000000000000e+00
114 66       5.4968101851851856e+01
114 67      -2.2204460492503131e-16
114 68      -5.3290705182007514e-15
114 69       2.1314157407407413e+02
114 70      -1.6826944444444443e+01
114 71       0.0000000000000000e+00
114 72       5.4968101851851863e+01
114 79       4.2067361111111108e+00
114 80      -1.6826944444444443e+01
114 81       2.0472858796296293e+01
114 82       1.7763568394002505e-15
114 83      -6.7307777777777773e+01
114 84       8.0208726851851878e+01
114 85      -4.2067361111111108e+00
114 86      -1.6826944444444447e+01
114 87       2.0472858796296300e+01
114 94       8.4131944444444440e-01
114 95       3.3652777777777771e+00
114 96      -6.1698379629629629e+00
114 97       0.0000000000000000e+00
114 98       1.3461111111111112e+01
114 99      -2.8044768518518502e+01
114 100      -8.4131944444444451e-01
114 101       3.3652777777777780e+00
114 102      -6.1698379629629638e+00
114 109       3.3652777777777785e+00
114 110       0.0000000000000000e+00
114 111      -7.8526018518518498e+01
114 112      -1.7763568394002505e-15
114 113      -1.4210854715202004e-14
114 115      -3.3652777777777789e+00
114 116       3.5527136788005009e-15
114 117      -7.8526018518518541e+01
114 124       8.4131944444444451e-01
114 125      -3.3652777777777789e+00
114 126      -6.1698379629629629e+00
114 127       8.8817841970012523e-16
114 128      -1.3461111111111121e+01
114 129      -2.8044768518518502e+01
114 130      -8.4131944444444451e-01
114 131      -3.3652777777777816e+00
114 132      -6.1698379629629647e+00
115 115      -1.5929629629629628e+02
115 52       9.9560185185185226e+00
115 53       4.2067361111111108e+00
115 54       4.2067361111111108e+00
115 55       3.3934629629629633e+01
115 56       1.1102230246251565e-16
115 57       4.4408920985006262e-16
115 58       9.9560185185185155e+00
115 59      -4.2067361111111117e+00
115 60      -4.2067361111111117e+00
115 67       1.2900740740740741e+01
115 68       6.6613381477509392e-16
115 69       1.6826944444444443e+01
115 70       2.8045185185185190e+01
115 71       8.8817841970012523e-16
115 72       1.7763568394002505e-15
115 73       1.2900740740740735e+01
115 74      -6.6613381477509392e-16
115 75      -1.6826944444444440e+01
115 82       9.9560185185185226e+00
115 83      -4.2067361111111117e+00
115 84       4.2067361111111108e+00
115 85       3.3934629629629626e+01
115 86      -1.5543122344752192e-15
115 87       8.8817841970012523e-16
115 88       9.9560185185185137e+00
115 89       4.2067361111111099e+00
115 90      -4.2067361111111108e+00
115 97       6.4503703703703712e+00
115 98       8.4134722222222216e+00
115 99      -8.4131944444444429e-01
115 100       1.4022592592592598e+01
115 101       0.0000000000000000e+00
115 102      -1.7763568394002505e-15
115 103       6.4503703703703676e+00
115 104      -8.4134722222222216e+00
115 105       8.4131944444444429e-01
115 112      -2.8045185185185193e+01
115 113       6.6613381477509392e-16
115 114      -3.3652777777777789e+00
115 116       0.0000000000000000e+00
115 117      -1.7763568394002505e-15
115 118      -2.8045185185185176e+01
115 119      -4.4408920985006262e-16
115 120       3.3652777777777780e+00
115 127       6.4503703703703721e+00
115 128      -8.4134722222222216e+00
115 129      -8.4131944444444451e-01
115 130       1.4022592592592595e+01
115 131       4.4408920985006262e-16
115 132       0.0000000000000000e+00
115 133       6.4503703703703676e+00
115 134       8.4134722222222216e+00
115 135       8.4131944444444473e-01
116 116      -3.2756574074074081e+02
116 52       4.2067361111111108e+00
116 53       2.0472858796296308e+01
116 54       1.6826944444444450e+01
116 55       0.0000000000000000e+00
116 56       8.0208726851851878e+01
116 57       6.7307777777777773e+01
116 58      -4.2067361111111108e+00
116 59       2.0472858796296293e+01
116 60       1.6826944444444443e+01
116 67       5.5511151231257827e-16
116 68      -1.2339675925925933e+01
116 69      -2.2204460492503131e-15
116 70       2.6645352591003757e-15
116 71      -5.6089537037037047e+01
116 72      -1.7763568394002505e-15
116 73      -1.1102230246251565e-15
116 74      -1.2339675925925924e+01
116 75       2.6645352591003757e-15
116 82      -4.2067361111111117e+00
116 83       2.0472858796296308e+01
116 84      -1.6826944444444450e+01
116 85      -1.2212453270876722e-15
116 86       8.0208726851851850e+01
116 87      -6.7307777777777773e+01
116 88       4.2067361111111108e+00
116 89       2.0472858796296286e+01
116 90      -1.6826944444444443e+01
116 97       8.4134722222222234e+00
116 98       2.7484050925925935e+01
116 99      -3.3652777777777816e+00
116 100       4.4408920985006262e-16
116 101       1.0657078703703706e+02
116 102      -1.3461111111111117e+01
116 103      -8.4134722222222216e+00
116 104       2.7484050925925917e+01
116 105      -3.3652777777777789e+00
116 112       0.0000000000000000e+00
116 113      -7.8526018518518541e+01
116 114       3.5527136788005009e-15
116 115       0.0000000000000000e+00
116 117       7.1054273576010019e-15
116 118      -6.6613381477509392e-16
116 119      -7.8526018518518498e+01
116 120      -3.5527136788005009e-15
116 127      -8.4134722222222234e+00
116 128       2.7484050925925935e+01
116 129       3.3652777777777780e+00
116 130       2.2204460492503131e-16
116 131       1.0657078703703706e+02
116 132       1.3461111111111109e+01
116 133       8.4134722222222216e+00
116 134       2.7484050925925914e+01
116 135       3.3652777777777754e+00
117 117      -3.2756574074074081e+02
117 52       4.2067361111111108e+00
117 53       1.6826944444444450e+01
117 54       2.0472858796296300e+01
117 55       0.0000000000000000e+00
117 56       6.7307777777777773e+01
117 57       8.0208726851851878e+01
117 58      -4.2067361111111108e+00
117 59       1.6826944444444440e+01
117 60       2.0472858796296293e+01
117 67       1.6826944444444443e+01
117 68      -8.8817841970012523e-16
117 69       5.4968101851851863e+01
117 70      -4.4408920985006262e-16
117 71       0.0000000000000000e+00
117 72       2.1314157407407416e+02
117 73      -1.6826944444444443e+01
117 74       2.6645352591003757e-15
117 75       5.4968101851851841e+01
117 82       4.2067361111111108e+00
117 83      -1.6826944444444447e+01
117 84       2.0472858796296308e+01
117 85       1.3322676295501878e-15
117 86      -6.7307777777777773e+01
117 87       8.0208726851851850e+01
117 88      -4.2067361111111108e+00
117 89      -1.6826944444444440e+01
117 90       2.0472858796296290e+01
117 97       8.4131944444444484e-01
117 98       3.3652777777777776e+00
117 99      -6.1698379629629638e+00
117 100      -8.8817841970012523e-16
117 101       1.3461111111111110e+01
117 102      -2.8044768518518513e+01
117 103      -8.4131944444444451e-01
117 104       3.3652777777777763e+00
117 105      -6.1698379629629638e+00
117 112       3.3652777777777789e+00
117 113       7.1054273576010019e-15
117 114      -7.8526018518518541e+01
117 115      -1.7763568394002505e-15
117 116       7.1054273576010019e-15
117 118      -3.3652777777777785e+00
117 119      -3.5527136788005009e-15
117 120      -7.8526018518518498e+01
117 127       8.4131944444444451e-01
117 128      -3.3652777777777816e+00
117 129      -6.1698379629629638e+00
117 130       0.0000000000000000e+00
117 131      -1.3461111111111119e+01
117 132      -2.8044768518518513e+01
117 133      -8.4131944444444440e-01
117 134      -3.3652777777777789e+00
117 135      -6.1698379629629621e+00
118 118      -7.9648148148148124e+01
118 55       9.9560185185185155e+00
118 56       4.2067361111111108e+00
118 57       4.2067361111111108e+00
118 58       1.6967314814814813e+01
118 59       8.4131944444444451e-01
118 60       8.4131944444444451e-01
118 70       1.2900740740740737e+01
118 71       3.3306690738754696e-16
118 72       1.6826944444444440e+01
118 73       1.4022592592592590e+01
118 74       8.8817841970012523e-16
118 75       3.3652777777777780e+00
118 85       9.9560185185185155e+00
118 86      -4.2067361111111117e+00
118 87       4.2067361111111108e+00
118 88       1.6967314814814813e+01
118 89      -8.4131944444444562e-01
118 90       8.4131944444444529e-01
118 100       6.4503703703703676e+00
118 101       8.4134722222222216e+00
118 102      -8.4131944444444440e-01
118 103       7.0112962962962921e+00
118 104       1.6826388888888886e+00
118 105      -4.2067361111111108e+00
118 115      -2.8045185185185176e+01
118 116      -6.6613381477509392e-16
118 117      -3.3652777777777785e+00
118 119       0.0000000000000000e+00
118 120      -1.6826944444444443e+01
118 130       6.4503703703703676e+00
118 131      -8.4134722222222216e+00
118 132      -8.4131944444444451e-01
118 133       7.0112962962962921e+00
118 134      -1.6826388888888899e+00
118 135      -4.2067361111111108e+00
118 385       0.0000000000000000e+00
118 386       0.0000000000000000e+00
118 387       0.0000000000000000e+00
118 388       0.0000000000000000e+00
118 389       0.0000000000000000e+00
118 390       0.0000000000000000e+00
118 388       9.0305150462962970e+01
118 389       0.0000000000000000e+00
118 390       0.0000000000000000e+00
118 391       0.0000000000000000e+00
118 392       0.0000000000000000e+00
118 393       0.0000000000000000e+00
118 394       0.0000000000000000e+00
118 395       0.0000000000000000e+00
118 397       0.0000000000000000e+00
118 398       0.0000000000000000e+00
118 399       0.0000000000000000e+00
118 400       0.0000000000000000e+00
118 401       0.0000000000000000e+00
118 402       0.0000000000000000e+00
119 119      -1.6378287037037035e+02
119 388       9.0305150462962970e+01
119 389       0.0000000000000000e+00
119 390       0.0000000000000000e+00
119 391       0.0000000000000000e+00
119 392       0.0000000000000000e+00
119 393       0.0000000000000000e+00
119 394       0.0000000000000000e+00
119 395       0.0000000000000000e+00
119 397       0.0000000000000000e+00
119 398       0.0000000000000000e+00
119 399       0.0000000000000000e+00
119 400       0.0000000000000000e+00
119 401       0.0000000000000000e+00
119 402       0.0000000000000000e+00
119 86       0.0000000000000000e+00
119 87      -1.6826944444444443e+01
119 88       8.4131944444444384e-01
119 89       4.0104363425925925e+01
119 90      -3.3653888888888886e+01
119 100       8.4134722222222216e+00
119 101       2.7484050925925917e+01
119 102      -3.3652777777777789e+00
119 103      -1.6826388888888890e+00
119 104       5.3285393518518504e+01
119 105      -6.7305555555555578e+00
119 115      -4.4408920985006262e-16
119 116      -7.8526018518518498e+01
119 117      -3.5527136788005009e-15
119 118       0.0000000000000000e+00
119 120       7.1054273576010019e-15
119 130      -8.4134722222222216e+00
119 131       2.7484050925925914e+01
119 132       3.3652777777777758e+00
119 133       1.6826388888888884e+00
119 134       5.3285393518518504e+01
119 135       6.7305555555555525e+00
119 385       0.0000000000000000e+00
119 386       0.0000000000000000e+00
119 387       0.0000000000000000e+00
119 388       0.0000000000000000e+00
119 389       0.0000000000000000e+00
119 388       2.9278930555555553e+02
119 390       0.0000000000000000e+00
119 388       0.0000000000000000e+00
119 389       0.0000000000000000e+00
119 390       0.0000000000000000e+00
119 391       0.0000000000000000e+00
119 392       0.0000000000000000e+00
119 393       0.0000000000000000e+00
119 394       0.0000000000000000e+00
119 395       0.0000000000000000e+00
119 397       0.0000000000000000e+00
119 398       0.0000000000000000e+00
119 399       0.0000000000000000e+00
119 400       0.0000000000000000e+00
119 401       0.0000000000000000e+00
119 402       0.0000000000000000e+00
120 120      -1.6378287037037035e+02
120 388       2.9278930555555553e+02
120 390       0.0000000000000000e+00
120 388       0.0000000000000000e+00
120 389       0.0000000000000000e+00
120 390       0.0000000000000000e+00
120 391       0.0000000000000000e+00
120 392       0.0000000000000000e+00
120 393       0.0000000000000000e+00
120 394       0.0000000000000000e+00
120 395       0.0000000000000000e+00
120 397       0.0000000000000000e+00
120 398       0.0000000000000000e+00
120 399       0.0000000000000000e+00
120 400       0.0000000000000000e+00
120 401       0.0000000000000000e+00
120 402       0.0000000000000000e+00
120 87       0.0000000000000000e+00
120 88       0.0000000000000000e+00
120 89       0.0000000000000000e+00
120 90       0.0000000000000000e+00
120 100       0.0000000000000000e+00
120 101       0.0000000000000000e+00
120 102       0.0000000000000000e+00
120 103       0.0000000000000000e+00
120 104       0.0000000000000000e+00
120 105       0.0000000000000000e+00
120 115       0.0000000000000000e+00
120 116       0.0000000000000000e+00
120 117      -7.8526018518518498e+01
120 118      -1.6826944444444443e+01
120 119       7.1054273576010019e-15
120 130       8.4131944444444440e-01
120 131      -3.3652777777777789e+00
120 132      -6.1698379629629621e+00
120 133      -4.2067361111111108e+00
120 134      -6.7305555555555578e+00
120 135      -1.4022384259259258e+01
120 385       0.0000000000000000e+00
120 386       0.0000000000000000e+00
120 387       0.0000000000000000e+00
120 389       0.0000000000000000e+00
120 390       1.5432098765425443e-03
120 391       1.2345679012345673e-02
120 392       0.0000000000000000e+00
120 393       0.0000000000000000e+00
120 394       0.0000000000000000e+00
120 395       0.0000000000000000e+00
120 396       0.0000000000000000e+00
120 397       1.2345679012345682e-02
120 398       0.0000000000000000e+00
120 399       0.0000000000000000e+00
120 400       9.8765432098765329e-02
120 401       0.0000000000000000e+00
120 402       0.0000000000000000e+00
121 121       0.0000000000000000e+00
121 390       1.5432098765425443e-03
121 391       1.2345679012345673e-02
121 392       0.0000000000000000e+00
121 393       0.0000000000000000e+00
121 394       0.0000000000000000e+00
121 395       0.0000000000000000e+00
121 396       0.0000000000000000e+00
121 397       1.2345679012345682e-02
121 398       0.0000000000000000e+00
121 399       0.0000000000000000e+00
121 400       9.8765432098765329e-02
121 401       0.0000000000000000e+00
121 402       0.0000000000000000e+00
121 107       0.0000000000000000e+00
121 108       0.0000000000000000e+00
121 109       0.0000000000000000e+00
121 110       0.0000000000000000e+00
121 111       0.0000000000000000e+00
121 122       0.0000000000000000e+00
121 123       0.0000000000000000e+00
121 124       0.0000000000000000e+00
121 125       0.0000000000000000e+00
121 126       0.0000000000000000e+00
122 122      -8.1891435185185188e+01
122 61       8.4131944444444473e-01
122 62       4.0104363425925939e+01
122 63       3.3653888888888879e+01
122 64      -4.2067361111111108e+00
122 65       2.0472858796296290e+01
122 66       1.6826944444444443e+01
122 76       4.2067361111111126e+00
122 77      -1.4022384259259264e+01
122 78       6.7305555555555570e+00
122 79      -8.4131944444444495e-01
122 80      -6.1698379629629647e+00
122 81       3.3652777777777780e+00
122 106       1.6826388888888892e+00
122 107       5.3285393518518525e+01
122 108      -6.7305555555555552e+00
122 109      -8.4134722222222216e+00
122 110       2.7484050925925921e+01
122 111      -3.3652777777777771e+00
122 121       8.4134722222222216e+00
122 123      -3.3653888888888886e+01
122 124      -1.6826388888888890e+00
122 125      -3.9263009259259249e+01
122 126      -1.6826944444444443e+01
123 123      -8.1891435185185173e+01
123 61       7.1631944444444462e-01
123 62       3.3653888888888879e+01
123 63       4.0104363425925932e+01
123 64      -4.2067361111111108e+00
123 65       1.6826944444444443e+01
123 66       2.0472858796296290e+01
123 76       1.6826388888888888e+00
123 77      -6.7305555555555552e+00
123 78       5.3285393518518525e+01
123 79      -8.4134722222222216e+00
123 80      -3.3652777777777771e+00
123 81       2.7484050925925924e+01
123 106       4.2067361111111108e+00
123 107       6.7305555555555552e+00
123 108      -1.4022384259259256e+01
123 109      -8.4131944444444451e-01
123 110       3.3652777777777776e+00
123 111      -6.1698379629629629e+00
123 121       8.4134722222222216e+00
123 122      -3.3653888888888886e+01
123 124      -1.6826388888888886e+00
123 125      -1.6826944444444443e+01
123 126      -3.9263009259259256e+01
124 124      -7.9648148148148152e+01
124 61       9.8310185185185155e+00
124 62       4.2067361111111108e+00
124 63       4.2067361111111108e+00
124 64       3.3934629629629626e+01
124 65      -6.6613381477509392e-16
124 66      -7.7715611723760958e-16
124 67       9.9560185185185155e+00
124 68      -4.2067361111111117e+00
124 69      -4.2067361111111117e+00
124 76       6.4503703703703685e+00
124 77      -8.4131944444444429e-01
124 78       8.4134722222222216e+00
124 79       1.4022592592592593e+01
124 80      -8.8817841970012523e-16
124 81      -2.2204460492503131e-16
124 82       6.4503703703703685e+00
124 83       8.4131944444444406e-01
124 84      -8.4134722222222234e+00
124 106       6.4503703703703694e+00
124 107       8.4134722222222216e+00
124 108      -8.4131944444444451e-01
124 109       1.4022592592592597e+01
124 110      -2.2204460492503131e-16
124 111       0.0000000000000000e+00
124 112       6.4503703703703703e+00
124 113      -8.4134722222222216e+00
124 114       8.4131944444444451e-01
124 121      -1.4022592592592590e+01
124 122      -1.6826388888888890e+00
124 123      -1.6826388888888886e+00
124 125      -1.7763568394002505e-15
124 126      -1.7763568394002505e-15
124 127      -1.4022592592592590e+01
124 128       1.6826388888888890e+00
124 129       1.6826388888888890e+00
125 125      -1.6378287037037038e+02
125 61       4.2067361111111108e+00
125 62       2.0472858796296290e+01
125 63       1.6826944444444443e+01
125 64      -4.4408920985006262e-16
125 65       8.0208726851851878e+01
125 66       6.7307777777777773e+01
125 67      -4.2067361111111108e+00
125 68       2.0472858796296293e+01
125 69       1.6826944444444447e+01
125 76       8.4131944444444451e-01
125 77      -6.1698379629629638e+00
125 78       3.3652777777777780e+00
125 79       1.7763568394002505e-15
125 80      -2.8044768518518520e+01
125 81       1.3461111111111116e+01
125 82      -8.4131944444444473e-01
125 83      -6.1698379629629638e+00
125 84       3.3652777777777798e+00
125 106       8.4134722222222216e+00
125 107       2.7484050925925921e+01
125 108      -3.3652777777777771e+00
125 109       6.6613381477509392e-16
125 110       1.0657078703703706e+02
125 111      -1.3461111111111116e+01
125 112      -8.4134722222222216e+00
125 113       2.7484050925925928e+01
125 114      -3.3652777777777789e+00
125 121       1.6826388888888892e+00
125 122      -3.9263009259259249e+01
125 123      -1.6826944444444443e+01
125 124      -1.7763568394002505e-15
125 126      -6.7307777777777773e+01
125 127      -1.6826388888888890e+00
125 128      -3.9263009259259256e+01
125 129      -1.6826944444444447e+01
126 126      -1.6378287037037035e+02
126 61       4.2067361111111099e+00
126 62       1.6826944444444443e+01
126 63       2.0472858796296290e+01
126 64      -4.4408920985006262e-16
126 65       6.7307777777777773e+01
126 66       8.0208726851851878e+01
126 67      -4.2067361111111108e+00
126 68       1.6826944444444440e+01
126 69       2.0472858796296293e+01
126 76       8.4134722222222216e+00
126 77      -3.3652777777777789e+00
126 78       2.7484050925925924e+01
126 79       2.2204460492503131e-16
126 80      -1.3461111111111112e+01
126 81       1.0657078703703705e+02
126 82      -8.4134722222222216e+00
126 83      -3.3652777777777763e+00
126 84       2.7484050925925921e+01
126 106       8.4131944444444451e-01
126 107       3.3652777777777771e+00
126 108      -6.1698379629629629e+00
126 109       0.0000000000000000e+00
126 110       1.3461111111111110e+01
126 111      -2.8044768518518509e+01
126 112      -8.4131944444444451e-01
126 113       3.3652777777777776e+00
126 114      -6.1698379629629629e+00
126 121       1.6826388888888890e+00
126 122      -1.6826944444444443e+01
126 123      -3.9263009259259256e+01
126 124      -1.7763568394002505e-15
126 125      -6.7307777777777773e+01
126 127      -1.6826388888888886e+00
126 128      -1.6826944444444447e+01
126 129      -3.9263009259259256e+01
127 127      -7.9648148148148167e+01
127 64       9.9560185185185155e+00
127 65       4.2067361111111108e+00
127 66       4.2067361111111108e+00
127 67       3.3934629629629633e+01
127 68      -7.7715611723760958e-16
127 69      -1.1102230246251565e-15
127 70       9.9560185185185226e+00
127 71      -4.2067361111111126e+00
127 72      -4.2067361111111117e+00
127 79       6.4503703703703685e+00
127 80      -8.4131944444444429e-01
127 81       8.4134722222222216e+00
127 82       1.4022592592592595e+01
127 83       0.0000000000000000e+00
127 84      -6.6613381477509392e-16
127 85       6.4503703703703685e+00
127 86       8.4131944444444451e-01
127 87      -8.4134722222222234e+00
127 109       6.4503703703703703e+00
127 110       8.4134722222222216e+00
127 111      -8.4131944444444451e-01
127 112       1.4022592592592604e+01
127 113      -2.2204460492503131e-16
127 114       8.8817841970012523e-16
127 115       6.4503703703703721e+00
127 116      -8.4134722222222234e+00
127 117       8.4131944444444451e-01
127 124      -1.4022592592592590e+01
127 125      -1.6826388888888890e+00
127 126      -1.6826388888888886e+00
127 128       1.7763568394002505e-15
127 129       0.0000000000000000e+00
127 130      -1.4022592592592595e+01
127 131       1.6826388888888895e+00
127 132       1.6826388888888899e+00
128 128      -1.6378287037037043e+02
128 64       4.2067361111111108e+00
128 65       2.0472858796296293e+01
128 66       1.6826944444444447e+01
128 67      -8.8817841970012523e-16
128 68       8.0208726851851878e+01
128 69       6.7307777777777787e+01
128 70      -4.2067361111111108e+00
128 71       2.0472858796296308e+01
128 72       1.6826944444444450e+01
128 79       8.4131944444444473e-01
128 80      -6.1698379629629647e+00
128 81       3.3652777777777789e+00
128 82       8.8817841970012523e-16
128 83      -2.8044768518518524e+01
128 84       1.3461111111111123e+01
128 85      -8.4131944444444495e-01
128 86      -6.1698379629629683e+00
128 87       3.3652777777777798e+00
128 109       8.4134722222222216e+00
128 110       2.7484050925925928e+01
128 111      -3.3652777777777798e+00
128 112       6.6613381477509392e-16
128 113       1.0657078703703709e+02
128 114      -1.3461111111111121e+01
128 115      -8.4134722222222216e+00
128 116       2.7484050925925935e+01
128 117      -3.3652777777777816e+00
128 124       1.6826388888888890e+00
128 125      -3.9263009259259256e+01
128 126      -1.6826944444444447e+01
128 127       1.7763568394002505e-15
128 129      -6.7307777777777801e+01
128 130      -1.6826388888888895e+00
128 131      -3.9263009259259263e+01
128 132      -1.6826944444444447e+01
129 129      -1.6378287037037038e+02
129 64       4.2067361111111099e+00
129 65       1.6826944444444440e+01
129 66       2.0472858796296293e+01
129 67      -6.6613381477509392e-16
129 68       6.7307777777777773e+01
129 69       8.0208726851851878e+01
129 70      -4.2067361111111108e+00
129 71       1.6826944444444450e+01
129 72       2.0472858796296308e+01
129 79       8.4134722222222216e+00
129 80      -3.3652777777777780e+00
129 81       2.7484050925925921e+01
129 82       2.2204460492503131e-16
129 83      -1.3461111111111112e+01
129 84       1.0657078703703706e+02
129 85      -8.4134722222222216e+00
129 86      -3.3652777777777789e+00
129 87       2.7484050925925928e+01
129 109       8.4131944444444451e-01
129 110       3.3652777777777771e+00
129 111      -6.1698379629629629e+00
129 112       0.0000000000000000e+00
129 113       1.3461111111111112e+01
129 114      -2.8044768518518502e+01
129 115      -8.4131944444444451e-01
129 116       3.3652777777777780e+00
129 117      -6.1698379629629638e+00
129 124       1.6826388888888890e+00
129 125      -1.6826944444444447e+01
129 126      -3.9263009259259256e+01
129 127       0.0000000000000000e+00
129 128      -6.7307777777777801e+01
129 130      -1.6826388888888890e+00
129 131      -1.6826944444444447e+01
129 132      -3.9263009259259270e+01
130 130      -7.9648148148148152e+01
130 67       9.9560185185185226e+00
130 68       4.2067361111111108e+00
130 69       4.2067361111111108e+00
130 70       3.3934629629629626e+01
130 71      -2.2204460492503131e-16
130 72      -5.5511151231257827e-16
130 73       9.9560185185185155e+00
130 74      -4.2067361111111117e+00
130 75      -4.2067361111111117e+00
130 82       6.4503703703703685e+00
130 83      -8.4131944444444451e-01
130 84       8.4134722222222216e+00
130 85       1.4022592592592591e+01
130 86       0.0000000000000000e+00
130 87       8.8817841970012523e-16
130 88       6.4503703703703676e+00
130 89       8.4131944444444395e-01
130 90      -8.4134722222222216e+00
130 112       6.4503703703703712e+00
130 113       8.4134722222222216e+00
130 114      -8.4131944444444451e-01
130 115       1.4022592592592595e+01
130 116       2.2204460492503131e-16
130 117       0.0000000000000000e+00
130 118       6.4503703703703676e+00
130 119      -8.4134722222222216e+00
130 120       8.4131944444444440e-01
130 127      -1.4022592592592595e+01
130 128      -1.6826388888888895e+00
130 129      -1.6826388888888890e+00
130 131       0.0000000000000000e+00
130 132      -1.7763568394002505e-15
130 133      -1.4022592592592588e+01
130 134       1.6826388888888890e+00
130 135       1.6826388888888890e+00
131 131      -1.6378287037037040e+02
131 67       4.2067361111111117e+00
131 68       2.0472858796296308e+01
131 69       1.6826944444444450e+01
131 70      -4.4408920985006262e-16
131 71       8.0208726851851878e+01
131 72       6.7307777777777773e+01
131 73      -4.2067361111111117e+00
131 74       2.0472858796296297e+01
131 75       1.6826944444444440e+01
131 82       8.4131944444444473e-01
131 83      -6.1698379629629683e+00
131 84       3.3652777777777798e+00
131 85       8.8817841970012523e-16
131 86      -2.8044768518518527e+01
131 87       1.3461111111111112e+01
131 88      -8.4131944444444517e-01
131 89      -6.1698379629629656e+00
131 90       3.3652777777777776e+00
131 112       8.4134722222222234e+00
131 113       2.7484050925925935e+01
131 114      -3.3652777777777816e+00
131 115       4.4408920985006262e-16
131 116       1.0657078703703706e+02
131 117      -1.3461111111111119e+01
131 118      -8.4134722222222216e+00
131 119       2.7484050925925914e+01
131 120      -3.3652777777777789e+00
131 127       1.6826388888888895e+00
131 128      -3.9263009259259263e+01
131 129      -1.6826944444444447e+01
131 130       0.0000000000000000e+00
131 132      -6.7307777777777773e+01
131 133      -1.6826388888888890e+00
131 134      -3.9263009259259242e+01
131 135      -1.6826944444444440e+01
132 132      -1.6378287037037038e+02
132 67       4.2067361111111108e+00
132 68       1.6826944444444450e+01
132 69       2.0472858796296308e+01
132 70      -6.6613381477509392e-16
132 71       6.7307777777777773e+01
132 72       8.0208726851851878e+01
132 73      -4.2067361111111108e+00
132 74       1.6826944444444440e+01
132 75       2.0472858796296290e+01
132 82       8.4134722222222234e+00
132 83      -3.3652777777777798e+00
132 84       2.7484050925925928e+01
132 85       0.0000000000000000e+00
132 86      -1.3461111111111116e+01
132 87       1.0657078703703705e+02
132 88      -8.4134722222222216e+00
132 89      -3.3652777777777789e+00
132 90       2.7484050925925921e+01
132 112       8.4131944444444451e-01
132 113       3.3652777777777776e+00
132 114      -6.1698379629629647e+00
132 115       0.0000000000000000e+00
132 116       1.3461111111111109e+01
132 117      -2.8044768518518513e+01
132 118      -8.4131944444444451e-01
132 119       3.3652777777777758e+00
132 120      -6.1698379629629621e+00
132 127       1.6826388888888899e+00
132 128      -1.6826944444444447e+01
132 129      -3.9263009259259270e+01
132 130      -1.7763568394002505e-15
132 131      -6.7307777777777773e+01
132 133      -1.6826388888888890e+00
132 134      -1.6826944444444440e+01
132 135      -3.9263009259259249e+01
133 133      -3.9824074074074069e+01
133 70       9.9560185185185155e+00
133 71       4.2067361111111108e+00
133 72       4.2067361111111108e+00
133 73       1.6967314814814813e+01
133 74       8.4131944444444406e-01
133 75       8.4131944444444418e-01
133 85       6.4503703703703668e+00
133 86      -8.4131944444444440e-01
133 87       8.4134722222222216e+00
133 88       7.0112962962962948e+00
133 89      -4.2067361111111117e+00
133 90       1.6826388888888884e+00
133 115       6.4503703703703676e+00
133 116       8.4134722222222216e+00
133 117      -8.4131944444444440e-01
133 118       7.0112962962962921e+00
133 119       1.6826388888888884e+00
133 120      -4.2067361111111108e+00
133 130      -1.4022592592592588e+01
133 131      -1.6826388888888890e+00
133 132      -1.6826388888888890e+00
133 134      -8.4134722222222216e+00
133 135      -8.4134722222222216e+00
133 388       0.0000000000000000e+00
133 389       0.0000000000000000e+00
133 390       0.0000000000000000e+00
133 391       1.0825349537037036e+02
133 392       0.0000000000000000e+00
133 393       0.0000000000000000e+00
133 397       0.0000000000000000e+00
133 398       0.0000000000000000e+00
133 399       0.0000000000000000e+00
133 400       0.0000000000000000e+00
133 401       0.0000000000000000e+00
133 402       0.0000000000000000e+00
134 134      -8.1891435185185173e+01
134 391       1.0825349537037036e+02
134 392       0.0000000000000000e+00
134 393       0.0000000000000000e+00
134 397       0.0000000000000000e+00
134 398       0.0000000000000000e+00
134 399       0.0000000000000000e+00
134 400       0.0000000000000000e+00
134 401       0.0000000000000000e+00
134 402       0.0000000000000000e+00
134 88       0.0000000000000000e+00
134 89      -1.4022384259259258e+01
134 90       6.7305555555555525e+00
134 115       8.4134722222222216e+00
134 116       2.7484050925925914e+01
134 117      -3.3652777777777789e+00
134 118      -1.6826388888888899e+00
134 119       5.3285393518518504e+01
134 120      -6.7305555555555578e+00
134 130       1.6826388888888890e+00
134 131      -3.9263009259259242e+01
134 132      -1.6826944444444440e+01
134 133      -8.4134722222222216e+00
134 135      -3.3653888888888879e+01
134 388       0.0000000000000000e+00
134 389       0.0000000000000000e+00
134 390       0.0000000000000000e+00
134 391       1.4527307870370367e+02
134 392       0.0000000000000000e+00
134 393       0.0000000000000000e+00
134 397       0.0000000000000000e+00
134 398       0.0000000000000000e+00
134 399       0.0000000000000000e+00
134 400       0.0000000000000000e+00
134 401       0.0000000000000000e+00
134 402       0.0000000000000000e+00
135 135      -8.1891435185185159e+01
135 391       1.4527307870370367e+02
135 392       0.0000000000000000e+00
135 393       0.0000000000000000e+00
135 397       0.0000000000000000e+00
135 398       0.0000000000000000e+00
135 399       0.0000000000000000e+00
135 400       0.0000000000000000e+00
135 401       0.0000000000000000e+00
135 402       0.0000000000000000e+00
135 88       0.0000000000000000e+00
135 89      -6.7305555555555596e+00
135 90       5.3285393518518504e+01
135 115       8.4131944444444473e-01
135 116       3.3652777777777754e+00
135 117      -6.1698379629629621e+00
135 118      -4.2067361111111108e+00
135 119       6.7305555555555525e+00
135 120      -1.4022384259259258e+01
135 130       1.6826388888888890e+00
135 131      -1.6826944444444440e+01
135 132      -3.9263009259259249e+01
135 133      -8.4134722222222216e+00
135 134      -3.3653888888888879e+01
135 388       0.0000000000000000e+00
135 389       0.0000000000000000e+00
135 390       0.0000000000000000e+00
135 391      -3.8702175925925935e+01
135 392       0.0000000000000000e+00
135 393       0.0000000000000000e+00
135 397       0.0000000000000000e+00
135 398       0.0000000000000000e+00
135 399       0.0000000000000000e+00
135 400       0.0000000000000000e+00
135 401       0.0000000000000000e+00
135 402       0.0000000000000000e+00
136 391      -3.8702175925925935e+01
136 392       0.0000000000000000e+00
136 393       0.0000000000000000e+00
136 397       0.0000000000000000e+00
136 398       0.0000000000000000e+00
136 399       0.0000000000000000e+00
136 400       0.0000000000000000e+00
136 401       0.0000000000000000e+00
136 402       0.0000000000000000e+00
136 154       0.0000000000000000e+00
136 155       0.0000000000000000e+00
136 156       0.0000000000000000e+00
136 196       0.0000000000000000e+00
136 197       0.0000000000000000e+00
136 198       0.0000000000000000e+00
136 199       0.0000000000000000e+00
136 200      -5.6087962962962890e-01
136 201       5.6089814814814840e+00
136 211       1.7512633744855972e+01
136 212       5.6087962962962923e-01
136 213       5.6087962962962978e-01
136 214       9.4106995884773674e+00
136 215       2.8044907407407411e+00
136 216       2.8044907407407411e+00
136 376      -5.5555555555555455e-02
136 377       0.0000000000000000e+00
136 378       0.0000000000000000e+00
136 403       0.0000000000000000e+00
136 404       0.0000000000000000e+00
136 405       0.0000000000000000e+00
137 137      -8.1268209876543253e+01
137 136      -5.6089814814814858e+00
137 138      -3.3653888888888886e+01
137 139       1.1217592592592607e+00
137 140      -3.9886234567901234e+01
137 141      -1.6826944444444450e+01
137 151      -1.1217592592592600e+00
137 152       5.3597006172839528e+01
137 153      -6.7305555555555578e+00
137 154       5.6089814814814849e+00
137 155       2.7172438271604957e+01
137 156      -3.3652777777777803e+00
137 196      -2.8044907407407416e+00
137 197      -1.3710771604938271e+01
137 198       6.7305555555555570e+00
137 199       5.6087962962963023e-01
137 200      -6.4814506172839534e+00
137 201       3.3652777777777838e+00
137 211      -5.6087962962963034e-01
137 212       4.0260169753086416e+01
137 213       3.3653888888888886e+01
137 214       2.8044907407407416e+00
137 215       2.0317052469135810e+01
137 216       1.6826944444444447e+01
137 376       0.0000000000000000e+00
137 377       0.0000000000000000e+00
137 378       5.5555555555555455e-02
137 403       0.0000000000000000e+00
137 404       0.0000000000000000e+00
137 405       0.0000000000000000e+00
138 138      -8.1268209876543253e+01
138 136      -5.6089814814814849e+00
138 137      -3.3653888888888886e+01
138 139       1.1217592592592596e+00
138 140      -1.6826944444444450e+01
138 141      -3.9886234567901241e+01
138 151      -2.8044907407407416e+00
138 152       6.7305555555555605e+00
138 153      -1.3710771604938271e+01
138 154       5.6087962962962967e-01
138 155       3.3652777777777771e+00
138 156      -6.4814506172839472e+00
138 196      -1.1217592592592589e+00
138 197      -6.7305555555555578e+00
138 198       5.3597006172839521e+01
138 199       5.6089814814814831e+00
138 200      -3.3652777777777736e+00
138 201       2.7172438271604939e+01
138 211      -5.6087962962962978e-01
138 212       3.3653888888888886e+01
138 213       4.0260169753086416e+01
138 214       2.8044907407407411e+00
138 215       1.6826944444444447e+01
138 216       2.0317052469135803e+01
138 376       0.0000000000000000e+00
138 377       5.5555555555555455e-02
138 378       0.0000000000000000e+00
138 403       0.0000000000000000e+00
138 404       0.0000000000000000e+00
138 405       0.0000000000000000e+00
139 139      -7.5285596707818925e+01
139 136      -1.6203868312757209e+01
139 137       1.1217592592592607e+00
139 138       1.1217592592592596e+00
139 140       8.8817841970012523e-16
139 141       8.8817841970012523e-16
139 142      -1.6203868312757216e+01
139 143      -1.1217592592592580e+00
139 144      -1.1217592592592587e+00
139 151       5.3597325102880626e+00
139 152      -5.6089814814814849e+00
139 153       5.6087962962962989e-01
139 154       1.6203868312757209e+01
139 155      -1.1102230246251565e-15
139 156       4.4408920985006262e-16
139 157       5.3597325102880680e+00
139 158       5.6089814814814831e+00
139 159      -5.6087962962962956e-01
139 196       5.3597325102880662e+00
139 197       5.6087962962963012e-01
139 198      -5.6089814814814831e+00
139 199       1.6203868312757209e+01
139 200      -8.8817841970012523e-16
139 201      -8.8817841970012523e-16
139 202       5.3597325102880680e+00
139 203      -5.6087962962962890e-01
139 204       5.6089814814814822e+00
139 211       9.4106995884773639e+00
139 212      -2.8044907407407407e+00
139 213      -2.8044907407407411e+00
139 214       3.5025267489711950e+01
139 215      -6.6613381477509392e-16
139 216      -3.3306690738754696e-16
139 217       9.4106995884773692e+00
139 218       2.8044907407407407e+00
139 219       2.8044907407407407e+00
139 403       0.0000000000000000e+00
139 404       0.0000000000000000e+00
139 405       0.0000000000000000e+00
140 140      -1.6253641975308653e+02
140 136      -1.1217592592592589e+00
140 137      -3.9886234567901234e+01
140 138      -1.6826944444444450e+01
140 139       8.8817841970012523e-16
140 141      -6.7307777777777773e+01
140 142       1.1217592592592598e+00
140 143      -3.9886234567901241e+01
140 144      -1.6826944444444450e+01
140 151      -5.6089814814814849e+00
140 152       2.7172438271604932e+01
140 153      -3.3652777777777785e+00
140 154       4.4408920985006262e-16
140 155       1.0719401234567908e+02
140 156      -1.3461111111111119e+01
140 157       5.6089814814814840e+00
140 158       2.7172438271604975e+01
140 159      -3.3652777777777811e+00
140 196      -5.6087962962962901e-01
140 197      -6.4814506172839526e+00
140 198       3.3652777777777731e+00
140 199      -1.3322676295501878e-15
140 200      -2.7421543209876539e+01
140 201       1.3461111111111112e+01
140 202       5.6087962962962978e-01
140 203      -6.4814506172839472e+00
140 204       3.3652777777777847e+00
140 211      -2.8044907407407416e+00
140 212       2.0317052469135792e+01
140 213       1.6826944444444443e+01
140 214      -1.1102230246251565e-16
140 215       8.0520339506172860e+01
140 216       6.7307777777777801e+01
140 217       2.8044907407407411e+00
140 218       2.0317052469135813e+01
140 219       1.6826944444444457e+01
140 403       0.0000000000000000e+00
140 404       0.0000000000000000e+00
140 405       0.0000000000000000e+00
141 141      -1.6253641975308648e+02
141 136      -1.1217592592592593e+00
141 137      -1.6826944444444450e+01
141 138      -3.9886234567901241e+01
141 139       8.8817841970012523e-16
141 140      -6.7307777777777773e+01
141 142       1.1217592592592587e+00
141 143      -1.6826944444444450e+01
141 144      -3.9886234567901248e+01
141 151      -5.6087962962962967e-01
141 152       3.3652777777777771e+00
141 153      -6.4814506172839526e+00
141 154       4.4408920985006262e-16
141 155       1.3461111111111112e+01
141 156      -2.7421543209876539e+01
141 157       5.6087962962962945e-01
141 158       3.3652777777777763e+00
141 159      -6.4814506172839472e+00
141 196      -5.6089814814814822e+00
141 197      -3.3652777777777843e+00
141 198       2.7172438271604946e+01
141 199       0.0000000000000000e+00
141 200      -1.3461111111111112e+01
141 201       1.0719401234567904e+02
141 202       5.6089814814814831e+00
141 203      -3.3652777777777692e+00
141 204       2.7172438271604950e+01
141 211      -2.8044907407407411e+00
141 212       1.6826944444444440e+01
141 213       2.0317052469135799e+01
141 214       2.2204460492503131e-16
141 215       6.7307777777777801e+01
141 216       8.0520339506172860e+01
141 217       2.8044907407407411e+00
141 218       1.6826944444444454e+01
141 219       2.0317052469135810e+01
141 403       0.0000000000000000e+00
141 404       0.0000000000000000e+00
141 405       0.0000000000000000e+00
142 142      -7.5285596707818911e+01
142 139      -1.6203868312757216e+01
142 140       1.1217592592592598e+00
142 141       1.1217592592592587e+00
142 143      -1.7763568394002505e-15
142 144      -1.7763568394002505e-15
142 145      -1.6203868312757194e+01
142 146      -1.1217592592592609e+00
142 147      -1.1217592592592596e+00
142 154       5.3597325102880644e+00
142 155      -5.6089814814814831e+00
142 156       5.6087962962962945e-01
142 157       1.6203868312757201e+01
142 158       4.4408920985006262e-16
142 159      -4.4408920985006262e-16
142 160       5.3597325102880564e+00
142 161       5.6089814814814831e+00
142 162      -5.6087962962962967e-01
142 199       5.3597325102880680e+00
142 200       5.6087962962962978e-01
142 201      -5.6089814814814822e+00
142 202       1.6203868312757201e+01
142 203      -8.8817841970012523e-16
142 204       4.4408920985006262e-16
142 205       5.3597325102880653e+00
142 206      -5.6087962962963012e-01
142 207       5.6089814814814849e+00
142 214       9.4106995884773657e+00
142 215      -2.8044907407407407e+00
142 216      -2.8044907407407407e+00
142 217       3.5025267489711943e+01
142 218       1.1102230246251565e-16
142 219       0.0000000000000000e+00
142 220       9.4106995884773674e+00
142 221       2.8044907407407411e+00
142 222       2.8044907407407416e+00
143 143      -1.6253641975308651e+02
143 139      -1.1217592592592580e+00
143 140      -3.9886234567901241e+01
143 141      -1.6826944444444450e+01
143 142      -1.7763568394002505e-15
143 144      -6.7307777777777773e+01
143 145       1.1217592592592587e+00
143 146      -3.9886234567901198e+01
143 147      -1.6826944444444436e+01
143 154      -5.6089814814814831e+00
143 155       2.7172438271604957e+01
143 156      -3.3652777777777811e+00
143 157      -8.8817841970012523e-16
143 158       1.0719401234567906e+02
143 159      -1.3461111111111121e+01
143 160       5.6089814814814840e+00
143 161       2.7172438271604918e+01
143 162      -3.3652777777777754e+00
143 199      -5.6087962962962890e-01
143 200      -6.4814506172839472e+00
143 201       3.3652777777777758e+00
143 202      -8.8817841970012523e-16
143 203      -2.7421543209876539e+01
143 204       1.3461111111111112e+01
143 205       5.6087962962962945e-01
143 206      -6.4814506172839463e+00
143 207       3.3652777777777736e+00
143 214      -2.8044907407407411e+00
143 215       2.0317052469135803e+01
143 216       1.6826944444444450e+01
143 217      -1.1102230246251565e-16
143 218       8.0520339506172860e+01
143 219       6.7307777777777773e+01
143 220       2.8044907407407411e+00
143 221       2.0317052469135799e+01
143 222       1.6826944444444440e+01
144 144      -1.6253641975308648e+02
144 139      -1.1217592592592587e+00
144 140      -1.6826944444444450e+01
144 141      -3.9886234567901248e+01
144 142      -1.7763568394002505e-15
144 143      -6.7307777777777773e+01
144 145       1.1217592592592596e+00
144 146      -1.6826944444444436e+01
144 147      -3.9886234567901226e+01
144 154      -5.6087962962962945e-01
144 155       3.3652777777777754e+00
144 156      -6.4814506172839517e+00
144 157      -4.4408920985006262e-16
144 158       1.3461111111111109e+01
144 159      -2.7421543209876539e+01
144 160       5.6087962962962967e-01
144 161       3.3652777777777798e+00
144 162      -6.4814506172839552e+00
144 199      -5.6089814814814822e+00
144 200      -3.3652777777777798e+00
144 201       2.7172438271604950e+01
144 202      -1.7763568394002505e-15
144 203      -1.3461111111111109e+01
144 204       1.0719401234567903e+02
144 205       5.6089814814814840e+00
144 206      -3.3652777777777834e+00
144 207       2.7172438271604943e+01
144 214      -2.8044907407407411e+00
144 215       1.6826944444444450e+01
144 216       2.0317052469135806e+01
144 217      -1.1102230246251565e-16
144 218       6.7307777777777773e+01
144 219       8.0520339506172846e+01
144 220       2.8044907407407411e+00
144 221       1.6826944444444440e+01
144 222       2.0317052469135803e+01
145 145      -7.5285596707818911e+01
145 142      -1.6203868312757194e+01
145 143       1.1217592592592587e+00
145 144       1.1217592592592596e+00
145 146       2.6645352591003757e-15
145 147       0.0000000000000000e+00
145 148      -1.6203868312757216e+01
145 149      -1.1217592592592620e+00
145 150      -1.1217592592592598e+00
145 157       5.3597325102880671e+00
145 158      -5.6089814814814849e+00
145 159       5.6087962962962967e-01
145 160       1.6203868312757201e+01
145 161       2.4424906541753444e-15
145 162       0.0000000000000000e+00
145 163       5.3597325102880609e+00
145 164       5.6089814814814831e+00
145 165      -5.6087962962962989e-01
145 202       5.3597325102880653e+00
145 203       5.6087962962962934e-01
145 204      -5.6089814814814840e+00
145 205       1.6203868312757209e+01
145 206       8.8817841970012523e-16
145 207       1.1102230246251565e-15
145 208       5.3597325102880706e+00
145 209      -5.6087962962963056e-01
145 210       5.6089814814814840e+00
145 217       9.4106995884773692e+00
145 218      -2.8044907407407416e+00
145 219      -2.8044907407407411e+00
145 220       3.5025267489711936e+01
145 221       7.7715611723760958e-16
145 222       0.0000000000000000e+00
145 223       9.4106995884773639e+00
145 224       2.8044907407407407e+00
145 225       2.8044907407407411e+00
146 146      -1.6253641975308653e+02
146 142      -1.1217592592592609e+00
146 143      -3.9886234567901198e+01
146 144      -1.6826944444444436e+01
146 145       2.6645352591003757e-15
146 147      -6.7307777777777773e+01
146 148       1.1217592592592580e+00
146 149      -3.9886234567901248e+01
146 150      -1.6826944444444457e+01
146 157      -5.6089814814814858e+00
146 158       2.7172438271604953e+01
146 159      -3.3652777777777763e+00
146 160       2.4424906541753444e-15
146 161       1.0719401234567906e+02
146 162      -1.3461111111111107e+01
146 163       5.6089814814814831e+00
146 164       2.7172438271604928e+01
146 165      -3.3652777777777749e+00
146 202      -5.6087962962963012e-01
146 203      -6.4814506172839463e+00
146 204       3.3652777777777807e+00
146 205       1.3322676295501878e-15
146 206      -2.7421543209876532e+01
146 207       1.3461111111111126e+01
146 208       5.6087962962962923e-01
146 209      -6.4814506172839472e+00
146 210       3.3652777777777807e+00
146 217      -2.8044907407407416e+00
146 218       2.0317052469135806e+01
146 219       1.6826944444444443e+01
146 220       4.4408920985006262e-16
146 221       8.0520339506172846e+01
146 222       6.7307777777777773e+01
146 223       2.8044907407407411e+00
146 224       2.0317052469135795e+01
146 225       1.6826944444444440e+01
147 147      -1.6253641975308648e+02
147 142      -1.1217592592592596e+00
147 143      -1.6826944444444436e+01
147 144      -3.9886234567901226e+01
147 145       0.0000000000000000e+00
147 146      -6.7307777777777773e+01
147 148       1.1217592592592600e+00
147 149      -1.6826944444444457e+01
147 150      -3.9886234567901262e+01
147 157      -5.6087962962962978e-01
147 158       3.3652777777777816e+00
147 159      -6.4814506172839446e+00
147 160       4.4408920985006262e-16
147 161       1.3461111111111130e+01
147 162      -2.7421543209876539e+01
147 163       5.6087962962962967e-01
147 164       3.3652777777777834e+00
147 165      -6.4814506172839543e+00
147 202      -5.6089814814814840e+00
147 203      -3.3652777777777763e+00
147 204       2.7172438271604943e+01
147 205       1.1102230246251565e-15
147 206      -1.3461111111111107e+01
147 207       1.0719401234567903e+02
147 208       5.6089814814814831e+00
147 209      -3.3652777777777798e+00
147 210       2.7172438271604953e+01
147 217      -2.8044907407407411e+00
147 218       1.6826944444444443e+01
147 219       2.0317052469135803e+01
147 220      -2.2204460492503131e-16
147 221       6.7307777777777773e+01
147 222       8.0520339506172846e+01
147 223       2.8044907407407416e+00
147 224       1.6826944444444443e+01
147 225       2.0317052469135799e+01
148 148      -3.7642798353909477e+01
148 145      -1.6203868312757216e+01
148 146       1.1217592592592580e+00
148 147       1.1217592592592600e+00
148 149       5.6089814814814876e+00
148 150       5.6089814814814849e+00
148 160       5.3597325102880777e+00
148 161      -5.6089814814814849e+00
148 162       5.6087962962962989e-01
148 163       8.1019341563786078e+00
148 164      -1.1217592592592596e+00
148 165       2.8044907407407411e+00
148 205       5.3597325102880706e+00
148 206       5.6087962962962934e-01
148 207      -5.6089814814814831e+00
148 208       8.1019341563786078e+00
148 209       2.8044907407407420e+00
148 210      -1.1217592592592605e+00
148 220       9.4106995884773674e+00
148 221      -2.8044907407407416e+00
148 222      -2.8044907407407411e+00
148 223       1.7512633744855965e+01
148 224      -5.6087962962962967e-01
148 225      -5.6087962962962967e-01
149 149      -8.1268209876543310e+01
149 145      -1.1217592592592620e+00
149 146      -3.9886234567901248e+01
149 147      -1.6826944444444457e+01
149 148       5.6089814814814876e+00
149 150      -3.3653888888888915e+01
149 160      -5.6089814814814849e+00
149 161       2.7172438271604985e+01
149 162      -3.3652777777777771e+00
149 163       1.1217592592592602e+00
149 164       5.3597006172839549e+01
149 165      -6.7305555555555525e+00
149 205      -5.6087962962963045e-01
149 206      -6.4814506172839472e+00
149 207       3.3652777777777914e+00
149 208       2.8044907407407420e+00
149 209      -1.3710771604938270e+01
149 210       6.7305555555555765e+00
149 220      -2.8044907407407416e+00
149 221       2.0317052469135810e+01
149 222       1.6826944444444447e+01
149 223       5.6087962962963001e-01
149 224       4.0260169753086430e+01
149 225       3.3653888888888901e+01
150 150      -8.1268209876543281e+01
150 145      -1.1217592592592598e+00
150 146      -1.6826944444444457e+01
150 147      -3.9886234567901262e+01
150 148       5.6089814814814849e+00
150 149      -3.3653888888888915e+01
150 160      -5.6087962962962967e-01
150 161       3.3652777777777843e+00
150 162      -6.4814506172839366e+00
150 163       2.8044907407407411e+00
150 164       6.7305555555555676e+00
150 165      -1.3710771604938266e+01
150 205      -5.6089814814814840e+00
150 206      -3.3652777777777700e+00
150 207       2.7172438271604953e+01
150 208       1.1217592592592598e+00
150 209      -6.7305555555555490e+00
150 210       5.3597006172839535e+01
150 220      -2.8044907407407416e+00
150 221       1.6826944444444447e+01
150 222       2.0317052469135806e+01
150 223       5.6087962962962989e-01
150 224       3.3653888888888901e+01
150 225       4.0260169753086423e+01
151 151      -7.5285596707818911e+01
151 136       8.1019341563785972e+00
151 137      -1.1217592592592600e+00
151 138      -2.8044907407407416e+00
151 139       5.3597325102880626e+00
151 140      -5.6089814814814849e+00
151 141      -5.6087962962962967e-01
151 152      -8.8817841970012523e-16
151 153      -1.1217962962962968e+01
151 154      -3.2407736625514410e+01
151 155       3.1086244689504383e-15
151 156      -2.2435185185185182e+00
151 166       8.1019341563786007e+00
151 167       1.1217592592592567e+00
151 168      -2.8044907407407407e+00
151 169       5.3597325102880662e+00
151 170       5.6089814814814831e+00
151 171      -5.6087962962962923e-01
151 196       1.7512633744855972e+01
151 197      -5.6087962962963023e-01
151 198       5.6087962962962967e-01
151 199       9.4106995884773639e+00
151 200      -2.8044907407407416e+00
151 201       2.8044907407407411e+00
151 211       1.6203868312757201e+01
151 212       0.0000000000000000e+00
151 213       2.2435185185185174e+00
151 214       1.0719465020576131e+01
151 215       1.4432899320127035e-15
151 216       1.1217962962962966e+01
151 226       1.7512633744855972e+01
151 227       5.6087962962962834e-01
151 228       5.6087962962962790e-01
151 229       9.4106995884773674e+00
151 230       2.8044907407407411e+00
151 231       2.8044907407407402e+00
151 376      -5.5555555555555511e-02
151 377       0.0000000000000000e+00
151 378       0.0000000000000000e+00
151 379      -5.5555555555555497e-02
151 380       0.0000000000000000e+00
151 381       0.0000000000000000e+00
151 403       0.0000000000000000e+00
151 404       0.0000000000000000e+00
151 405       0.0000000000000000e+00
151 406       0.0000000000000000e+00
151 407       0.0000000000000000e+00
151 408       0.0000000000000000e+00
152 152      -1.6253641975308651e+02
152 136       1.1217592592592591e+00
152 137       5.3597006172839528e+01
152 138       6.7305555555555605e+00
152 139      -5.6089814814814849e+00
152 140       2.7172438271604932e+01
152 141       3.3652777777777771e+00
152 151      -8.8817841970012523e-16
152 153       0.0000000000000000e+00
152 154       2.2204460492503131e-15
152 155      -7.9772469135802439e+01
152 156      -7.1054273576010019e-15
152 166      -1.1217592592592616e+00
152 167       5.3597006172839528e+01
152 168      -6.7305555555555543e+00
152 169       5.6089814814814822e+00
152 170       2.7172438271604957e+01
152 171      -3.3652777777777789e+00
152 196       5.6087962962962934e-01
152 197       4.0260169753086416e+01
152 198      -3.3653888888888886e+01
152 199      -2.8044907407407411e+00
152 200       2.0317052469135792e+01
152 201      -1.6826944444444443e+01
152 211       4.4408920985006262e-16
152 212      -2.7421543209876539e+01
152 213      -3.5527136788005009e-15
152 214       1.2212453270876722e-15
152 215      -1.2962901234567902e+01
152 216       7.9936057773011271e-15
152 226      -5.6087962962963089e-01
152 227       4.0260169753086416e+01
152 228       3.3653888888888886e+01
152 229       2.8044907407407411e+00
152 230       2.0317052469135810e+01
152 231       1.6826944444444443e+01
152 376       0.0000000000000000e+00
152 377       0.0000000000000000e+00
152 378       5.5555555555555511e-02
152 379       0.0000000000000000e+00
152 380       0.0000000000000000e+00
152 381       5.5555555555555497e-02
152 403       0.0000000000000000e+00
152 404       0.0000000000000000e+00
152 405       0.0000000000000000e+00
152 406       0.0000000000000000e+00
152 407       0.0000000000000000e+00
152 408       0.0000000000000000e+00
153 153      -1.6253641975308642e+02
153 136      -2.8044907407407416e+00
153 137      -6.7305555555555578e+00
153 138      -1.3710771604938271e+01
153 139       5.6087962962962989e-01
153 140      -3.3652777777777785e+00
153 141      -6.4814506172839526e+00
153 151      -1.1217962962962968e+01
153 152       0.0000000000000000e+00
153 154       2.2435185185185187e+00
153 155      -3.5527136788005009e-15
153 156      -7.9772469135802467e+01
153 166      -2.8044907407407407e+00
153 167       6.7305555555555543e+00
153 168      -1.3710771604938266e+01
153 169       5.6087962962962956e-01
153 170       3.3652777777777771e+00
153 171      -6.4814506172839446e+00
153 196      -5.6087962962962967e-01
153 197      -3.3653888888888879e+01
153 198       4.0260169753086416e+01
153 199       2.8044907407407411e+00
153 200      -1.6826944444444443e+01
153 201       2.0317052469135799e+01
153 211      -2.2435185185185187e+00
153 212      -2.6645352591003757e-15
153 213       1.0719401234567903e+02
153 214       1.1217962962962966e+01
153 215       7.5495165674510645e-15
153 216       5.4344876543209878e+01
153 226      -5.6087962962963067e-01
153 227       3.3653888888888886e+01
153 228       4.0260169753086416e+01
153 229       2.8044907407407407e+00
153 230       1.6826944444444447e+01
153 231       2.0317052469135799e+01
153 376       0.0000000000000000e+00
153 377       5.5555555555555511e-02
153 378       0.0000000000000000e+00
153 379       0.0000000000000000e+00
153 380       5.5555555555555497e-02
153 381       0.0000000000000000e+00
153 403       0.0000000000000000e+00
153 404       0.0000000000000000e+00
153 405       0.0000000000000000e+00
153 406       0.0000000000000000e+00
153 407       0.0000000000000000e+00
153 408       0.0000000000000000e+00
154 154      -1.5057119341563788e+02
154 136       5.3597325102880680e+00
154 137       5.6089814814814849e+00
154 138       5.6087962962962967e-01
154 139       1.6203868312757209e+01
154 140       4.4408920985006262e-16
154 141       4.4408920985006262e-16
154 142       5.3597325102880644e+00
154 143      -5.6089814814814831e+00
154 144      -5.6087962962962945e-01
154 151      -3.2407736625514410e+01
154 152       2.2204460492503131e-15
154 153       2.2435185185185187e+00
154 155      -8.8817841970012523e-16
154 156       2.6645352591003757e-15
154 157      -3.2407736625514431e+01
154 158       1.3322676295501878e-15
154 159      -2.2435185185185187e+00
154 166       5.3597325102880626e+00
154 167      -5.6089814814814840e+00
154 168       5.6087962962962989e-01
154 169       1.6203868312757216e+01
154 170      -2.6645352591003757e-15
154 171       4.4408920985006262e-16
154 172       5.3597325102880715e+00
154 173       5.6089814814814831e+00
154 174      -5.6087962962962934e-01
154 196       9.4106995884773674e+00
154 197       2.8044907407407416e+00
154 198      -2.8044907407407411e+00
154 199       3.5025267489711950e+01
154 200      -3.3306690738754696e-16
154 201      -3.3306690738754696e-16
154 202       9.4106995884773657e+00
154 203      -2.8044907407407411e+00
154 204       2.8044907407407407e+00
154 211       1.0719465020576132e+01
154 212       1.2212453270876722e-15
154 213      -1.1217962962962966e+01
154 214       3.2407736625514403e+01
154 215      -1.7763568394002505e-15
154 216       4.4408920985006262e-16
154 217       1.0719465020576134e+01
154 218       9.9920072216264089e-16
154 219       1.1217962962962964e+01
154 226       9.4106995884773639e+00
154 227      -2.8044907407407411e+00
154 228      -2.8044907407407411e+00
154 229       3.5025267489711950e+01
154 230      -1.9984014443252818e-15
154 231      -2.5535129566378600e-15
154 232       9.4106995884773728e+00
154 233       2.8044907407407407e+00
154 234       2.8044907407407402e+00
154 403       0.0000000000000000e+00
154 404       0.0000000000000000e+00
154 405       0.0000000000000000e+00
154 406       0.0000000000000000e+00
154 407       0.0000000000000000e+00
154 408       0.0000000000000000e+00
155 155      -3.2507283950617312e+02
155 136       5.6089814814814849e+00
155 137       2.7172438271604957e+01
155 138       3.3652777777777771e+00
155 139      -1.1102230246251565e-15
155 140       1.0719401234567908e+02
155 141       1.3461111111111112e+01
155 142      -5.6089814814814831e+00
155 143       2.7172438271604957e+01
155 144       3.3652777777777754e+00
155 151       3.1086244689504383e-15
155 152      -7.9772469135802439e+01
155 153      -3.5527136788005009e-15
155 154      -8.8817841970012523e-16
155 156       2.8421709430404007e-14
155 157       2.8865798640254070e-15
155 158      -7.9772469135802496e+01
155 159       3.5527136788005009e-15
155 166      -5.6089814814814840e+00
155 167       2.7172438271604932e+01
155 168      -3.3652777777777776e+00
155 169      -3.7747582837255322e-15
155 170       1.0719401234567908e+02
155 171      -1.3461111111111116e+01
155 172       5.6089814814814831e+00
155 173       2.7172438271604985e+01
155 174      -3.3652777777777834e+00
155 196       2.8044907407407411e+00
155 197       2.0317052469135810e+01
155 198      -1.6826944444444447e+01
155 199      -8.8817841970012523e-16
155 200       8.0520339506172860e+01
155 201      -6.7307777777777773e+01
155 202      -2.8044907407407407e+00
155 203       2.0317052469135803e+01
155 204      -1.6826944444444447e+01
155 211       1.5543122344752192e-15
155 212      -1.2962901234567898e+01
155 213      -1.2878587085651816e-14
155 214      -8.8817841970012523e-16
155 215      -5.4843086419753099e+01
155 216      -1.2434497875801753e-14
155 217       1.3322676295501878e-15
155 218      -1.2962901234567909e+01
155 219       8.4376949871511897e-15
155 226      -2.8044907407407411e+00
155 227       2.0317052469135795e+01
155 228       1.6826944444444440e+01
155 229      -2.4424906541753444e-15
155 230       8.0520339506172860e+01
155 231       6.7307777777777801e+01
155 232       2.8044907407407411e+00
155 233       2.0317052469135824e+01
155 234       1.6826944444444461e+01
155 403       0.0000000000000000e+00
155 404       0.0000000000000000e+00
155 405       0.0000000000000000e+00
155 406       0.0000000000000000e+00
155 407       0.0000000000000000e+00
155 408       0.0000000000000000e+00
156 156      -3.2507283950617295e+02
156 136      -5.6087962962962978e-01
156 137      -3.3652777777777803e+00
156 138      -6.4814506172839472e+00
156 139       4.4408920985006262e-16
156 140      -1.3461111111111119e+01
156 141      -2.7421543209876539e+01
156 142       5.6087962962962945e-01
156 143      -3.3652777777777811e+00
156 144      -6.4814506172839517e+00
156 151      -2.2435185185185182e+00
156 152      -7.1054273576010019e-15
156 153      -7.9772469135802467e+01
156 154       2.6645352591003757e-15
156 155       2.8421709430404007e-14
156 157       2.2435185185185191e+00
156 158       7.1054273576010019e-15
156 159      -7.9772469135802510e+01
156 166      -5.6087962962962945e-01
156 167       3.3652777777777758e+00
156 168      -6.4814506172839499e+00
156 169       4.4408920985006262e-16
156 170       1.3461111111111121e+01
156 171      -2.7421543209876525e+01
156 172       5.6087962962962978e-01
156 173       3.3652777777777798e+00
156 174      -6.4814506172839446e+00
156 196      -2.8044907407407411e+00
156 197      -1.6826944444444450e+01
156 198       2.0317052469135803e+01
156 199       2.2204460492503131e-16
156 200      -6.7307777777777773e+01
156 201       8.0520339506172860e+01
156 202       2.8044907407407411e+00
156 203      -1.6826944444444450e+01
156 204       2.0317052469135806e+01
156 211      -1.1217962962962966e+01
156 212      -1.4654943925052066e-14
156 213       5.4344876543209878e+01
156 214       1.9984014443252818e-15
156 215      -1.5099033134902129e-14
156 216       2.1438802469135808e+02
156 217       1.1217962962962964e+01
156 218       8.8817841970012523e-15
156 219       5.4344876543209892e+01
156 226      -2.8044907407407411e+00
156 227       1.6826944444444440e+01
156 228       2.0317052469135795e+01
156 229      -2.5535129566378600e-15
156 230       6.7307777777777787e+01
156 231       8.0520339506172860e+01
156 232       2.8044907407407402e+00
156 233       1.6826944444444457e+01
156 234       2.0317052469135810e+01
156 403       0.0000000000000000e+00
156 404       0.0000000000000000e+00
156 405       0.0000000000000000e+00
156 406       0.0000000000000000e+00
156 407       0.0000000000000000e+00
156 408       0.0000000000000000e+00
157 157      -1.5057119341563788e+02
157 139       5.3597325102880680e+00
157 140       5.6089814814814840e+00
157 141       5.6087962962962945e-01
157 142       1.6203868312757201e+01
157 143      -8.8817841970012523e-16
157 144      -4.4408920985006262e-16
157 145       5.3597325102880671e+00
157 146      -5.6089814814814858e+00
157 147      -5.6087962962962978e-01
157 154      -3.2407736625514431e+01
157 155       2.8865798640254070e-15
157 156       2.2435185185185191e+00
157 158       6.2172489379008766e-15
157 159      -1.7763568394002505e-15
157 160      -3.2407736625514403e+01
157 161      -2.6645352591003757e-15
157 162      -2.2435185185185196e+00
157 169       5.3597325102880689e+00
157 170      -5.6089814814814849e+00
157 171       5.6087962962963001e-01
157 172       1.6203868312757216e+01
157 173      -1.9984014443252818e-15
157 174       4.4408920985006262e-16
157 175       5.3597325102880591e+00
157 176       5.6089814814814831e+00
157 177      -5.6087962962962934e-01
157 199       9.4106995884773692e+00
157 200       2.8044907407407411e+00
157 201      -2.8044907407407407e+00
157 202       3.5025267489711943e+01
157 203      -3.3306690738754696e-16
157 204       1.1102230246251565e-16
157 205       9.4106995884773692e+00
157 206      -2.8044907407407416e+00
157 207       2.8044907407407416e+00
157 214       1.0719465020576134e+01
157 215       1.5543122344752192e-15
157 216      -1.1217962962962964e+01
157 217       3.2407736625514403e+01
157 218       1.7763568394002505e-15
157 219       1.3322676295501878e-15
157 220       1.0719465020576131e+01
157 221      -3.3306690738754696e-16
157 222       1.1217962962962966e+01
157 229       9.4106995884773657e+00
157 230      -2.8044907407407411e+00
157 231      -2.8044907407407407e+00
157 232       3.5025267489711950e+01
157 233      -1.7763568394002505e-15
157 234      -2.4424906541753444e-15
157 235       9.4106995884773674e+00
157 236       2.8044907407407402e+00
157 237       2.8044907407407402e+00
158 158      -3.2507283950617312e+02
158 139       5.6089814814814831e+00
158 140       2.7172438271604975e+01
158 141       3.3652777777777763e+00
158 142       4.4408920985006262e-16
158 143       1.0719401234567906e+02
158 144       1.3461111111111109e+01
158 145      -5.6089814814814849e+00
158 146       2.7172438271604953e+01
158 147       3.3652777777777816e+00
158 154       1.3322676295501878e-15
158 155      -7.9772469135802496e+01
158 156       7.1054273576010019e-15
158 157       6.2172489379008766e-15
158 159       0.0000000000000000e+00
158 160      -2.2204460492503131e-15
158 161      -7.9772469135802424e+01
158 162       1.0658141036401503e-14
158 169      -5.6089814814814849e+00
158 170       2.7172438271604967e+01
158 171      -3.3652777777777829e+00
158 172      -1.5543122344752192e-15
158 173       1.0719401234567908e+02
158 174      -1.3461111111111117e+01
158 175       5.6089814814814813e+00
158 176       2.7172438271604925e+01
158 177      -3.3652777777777736e+00
158 199       2.8044907407407407e+00
158 200       2.0317052469135813e+01
158 201      -1.6826944444444450e+01
158 202       2.2204460492503131e-16
158 203       8.0520339506172860e+01
158 204      -6.7307777777777773e+01
158 205      -2.8044907407407416e+00
158 206       2.0317052469135806e+01
158 207      -1.6826944444444447e+01
158 214       1.1102230246251565e-15
158 215      -1.2962901234567907e+01
158 216      -9.3258734068513149e-15
158 217       2.2204460492503131e-15
158 218      -5.4843086419753099e+01
158 219       2.6645352591003757e-15
158 220       0.0000000000000000e+00
158 221      -1.2962901234567898e+01
158 222      -3.5527136788005009e-15
158 229      -2.8044907407407416e+00
158 230       2.0317052469135810e+01
158 231       1.6826944444444454e+01
158 232      -1.2212453270876722e-15
158 233       8.0520339506172860e+01
158 234       6.7307777777777787e+01
158 235       2.8044907407407407e+00
158 236       2.0317052469135792e+01
158 237       1.6826944444444440e+01
159 159      -3.2507283950617295e+02
159 139      -5.6087962962962956e-01
159 140      -3.3652777777777811e+00
159 141      -6.4814506172839472e+00
159 142      -4.4408920985006262e-16
159 143      -1.3461111111111121e+01
159 144      -2.7421543209876539e+01
159 145       5.6087962962962967e-01
159 146      -3.3652777777777763e+00
159 147      -6.4814506172839446e+00
159 154      -2.2435185185185187e+00
159 155       3.5527136788005009e-15
159 156      -7.9772469135802510e+01
159 157      -1.7763568394002505e-15
159 158       0.0000000000000000e+00
159 160       2.2435185185185205e+00
159 161       7.1054273576010019e-15
159 162      -7.9772469135802453e+01
159 169      -5.6087962962962956e-01
159 170       3.3652777777777789e+00
159 171      -6.4814506172839490e+00
159 172       4.4408920985006262e-16
159 173       1.3461111111111123e+01
159 174      -2.7421543209876532e+01
159 175       5.6087962962962978e-01
159 176       3.3652777777777825e+00
159 177      -6.4814506172839508e+00
159 199      -2.8044907407407411e+00
159 200      -1.6826944444444454e+01
159 201       2.0317052469135810e+01
159 202      -1.1102230246251565e-16
159 203      -6.7307777777777773e+01
159 204       8.0520339506172846e+01
159 205       2.8044907407407416e+00
159 206      -1.6826944444444447e+01
159 207       2.0317052469135803e+01
159 214      -1.1217962962962964e+01
159 215      -1.2434497875801753e-14
159 216       5.4344876543209899e+01
159 217       1.7763568394002505e-15
159 218      -1.2434497875801753e-14
159 219       2.1438802469135808e+02
159 220       1.1217962962962966e+01
159 221      -3.9968028886505635e-15
159 222       5.4344876543209878e+01
159 229      -2.8044907407407416e+00
159 230       1.6826944444444454e+01
159 231       2.0317052469135810e+01
159 232      -1.9984014443252818e-15
159 233       6.7307777777777787e+01
159 234       8.0520339506172860e+01
159 235       2.8044907407407402e+00
159 236       1.6826944444444443e+01
159 237       2.0317052469135799e+01
160 160      -1.5057119341563785e+02
160 142       5.3597325102880564e+00
160 143       5.6089814814814840e+00
160 144       5.6087962962962967e-01
160 145       1.6203868312757201e+01
160 146       2.4424906541753444e-15
160 147       4.4408920985006262e-16
160 148       5.3597325102880777e+00
160 149      -5.6089814814814849e+00
160 150      -5.6087962962962967e-01
160 157      -3.2407736625514403e+01
160 158      -2.2204460492503131e-15
160 159       2.2435185185185205e+00
160 161       9.7699626167013776e-15
160 162       2.6645352591003757e-15
160 163      -3.2407736625514417e+01
160 164      -3.3306690738754696e-15
160 165      -2.2435185185185187e+00
160 172       5.3597325102880715e+00
160 173      -5.6089814814814858e+00
160 174       5.6087962962963001e-01
160 175       1.6203868312757209e+01
160 176      -1.5543122344752192e-15
160 177       4.4408920985006262e-16
160 178       5.3597325102880582e+00
160 179       5.6089814814814813e+00
160 180      -5.6087962962962912e-01
160 202       9.4106995884773674e+00
160 203       2.8044907407407411e+00
160 204      -2.8044907407407411e+00
160 205       3.5025267489711936e+01
160 206       4.4408920985006262e-16
160 207       0.0000000000000000e+00
160 208       9.4106995884773674e+00
160 209      -2.8044907407407411e+00
160 210       2.8044907407407411e+00
160 217       1.0719465020576131e+01
160 218       0.0000000000000000e+00
160 219      -1.1217962962962968e+01
160 220       3.2407736625514396e+01
160 221       2.6645352591003757e-15
160 222      -1.7763568394002505e-15
160 223       1.0719465020576131e+01
160 224      -5.5511151231257827e-16
160 225       1.1217962962962966e+01
160 232       9.4106995884773692e+00
160 233      -2.8044907407407416e+00
160 234      -2.8044907407407411e+00
160 235       3.5025267489711936e+01
160 236      -9.9920072216264089e-16
160 237      -2.6645352591003757e-15
160 238       9.4106995884773621e+00
160 239       2.8044907407407402e+00
160 240       2.8044907407407402e+00
161 161      -3.2507283950617301e+02
161 142       5.6089814814814831e+00
161 143       2.7172438271604918e+01
161 144       3.3652777777777798e+00
161 145       2.4424906541753444e-15
161 146       1.0719401234567906e+02
161 147       1.3461111111111130e+01
161 148      -5.6089814814814849e+00
161 149       2.7172438271604985e+01
161 150       3.3652777777777843e+00
161 157      -2.6645352591003757e-15
161 158      -7.9772469135802424e+01
161 159       7.1054273576010019e-15
161 160       9.7699626167013776e-15
161 162      -1.4210854715202004e-14
161 163      -3.9968028886505635e-15
161 164      -7.9772469135802467e+01
161 165      -7.1054273576010019e-15
161 172      -5.6089814814814849e+00
161 173       2.7172438271604960e+01
161 174      -3.3652777777777736e+00
161 175      -8.8817841970012523e-16
161 176       1.0719401234567906e+02
161 177      -1.3461111111111098e+01
161 178       5.6089814814814813e+00
161 179       2.7172438271604928e+01
161 180      -3.3652777777777727e+00
161 202       2.8044907407407411e+00
161 203       2.0317052469135799e+01
161 204      -1.6826944444444443e+01
161 205       5.5511151231257827e-16
161 206       8.0520339506172846e+01
161 207      -6.7307777777777773e+01
161 208      -2.8044907407407416e+00
161 209       2.0317052469135810e+01
161 210      -1.6826944444444447e+01
161 217      -3.3306690738754696e-16
161 218      -1.2962901234567898e+01
161 219       8.8817841970012523e-15
161 220       3.9968028886505635e-15
161 221      -5.4843086419753092e+01
161 222       1.1546319456101628e-14
161 223      -6.6613381477509392e-16
161 224      -1.2962901234567903e+01
161 225      -1.1990408665951691e-14
161 232      -2.8044907407407420e+00
161 233       2.0317052469135803e+01
161 234       1.6826944444444443e+01
161 235      -6.6613381477509392e-16
161 236       8.0520339506172846e+01
161 237       6.7307777777777773e+01
161 238       2.8044907407407402e+00
161 239       2.0317052469135792e+01
161 240       1.6826944444444436e+01
162 162      -3.2507283950617290e+02
162 142      -5.6087962962962967e-01
162 143      -3.3652777777777754e+00
162 144      -6.4814506172839552e+00
162 145       0.0000000000000000e+00
162 146      -1.3461111111111107e+01
162 147      -2.7421543209876539e+01
162 148       5.6087962962962989e-01
162 149      -3.3652777777777771e+00
162 150      -6.4814506172839366e+00
162 157      -2.2435185185185196e+00
162 158       1.0658141036401503e-14
162 159      -7.9772469135802453e+01
162 160       2.6645352591003757e-15
162 161      -1.4210854715202004e-14
162 163       2.2435185185185196e+00
162 164      -1.4210854715202004e-14
162 165      -7.9772469135802481e+01
162 172      -5.6087962962962956e-01
162 173       3.3652777777777834e+00
162 174      -6.4814506172839410e+00
162 175       8.8817841970012523e-16
162 176       1.3461111111111130e+01
162 177      -2.7421543209876518e+01
162 178       5.6087962962962989e-01
162 179       3.3652777777777807e+00
162 180      -6.4814506172839508e+00
162 202      -2.8044907407407411e+00
162 203      -1.6826944444444443e+01
162 204       2.0317052469135803e+01
162 205      -1.1102230246251565e-16
162 206      -6.7307777777777773e+01
162 207       8.0520339506172846e+01
162 208       2.8044907407407411e+00
162 209      -1.6826944444444447e+01
162 210       2.0317052469135806e+01
162 217      -1.1217962962962964e+01
162 218       7.1054273576010019e-15
162 219       5.4344876543209878e+01
162 220      -6.6613381477509392e-16
162 221       1.7763568394002505e-15
162 222       2.1438802469135800e+02
162 223       1.1217962962962964e+01
162 224      -1.1990408665951691e-14
162 225       5.4344876543209871e+01
162 232      -2.8044907407407411e+00
162 233       1.6826944444444443e+01
162 234       2.0317052469135799e+01
162 235      -2.4424906541753444e-15
162 236       6.7307777777777773e+01
162 237       8.0520339506172832e+01
162 238       2.8044907407407402e+00
162 239       1.6826944444444440e+01
162 240       2.0317052469135799e+01
163 163      -7.5285596707818939e+01
163 145       5.3597325102880609e+00
163 146       5.6089814814814831e+00
163 147       5.6087962962962967e-01
163 148       8.1019341563786078e+00
163 149       1.1217592592592602e+00
163 150       2.8044907407407411e+00
163 160      -3.2407736625514417e+01
163 161      -3.9968028886505635e-15
163 162       2.2435185185185196e+00
163 164       6.2172489379008766e-15
163 165       1.1217962962962966e+01
163 175       5.3597325102880777e+00
163 176      -5.6089814814814849e+00
163 177       5.6087962962963001e-01
163 178       8.1019341563786078e+00
163 179      -1.1217592592592607e+00
163 180       2.8044907407407411e+00
163 205       9.4106995884773639e+00
163 206       2.8044907407407411e+00
163 207      -2.8044907407407407e+00
163 208       1.7512633744855968e+01
163 209       5.6087962962963001e-01
163 210      -5.6087962962962967e-01
163 220       1.0719465020576131e+01
163 221      -6.6613381477509392e-16
163 222      -1.1217962962962964e+01
163 223       1.6203868312757194e+01
163 224       2.2204460492503131e-15
163 225      -2.2435185185185182e+00
163 235       9.4106995884773674e+00
163 236      -2.8044907407407416e+00
163 237      -2.8044907407407411e+00
163 238       1.7512633744855965e+01
163 239      -5.6087962962963034e-01
163 240      -5.6087962962963078e-01
164 164      -1.6253641975308653e+02
164 145       5.6089814814814831e+00
164 146       2.7172438271604928e+01
164 147       3.3652777777777834e+00
164 148      -1.1217592592592596e+00
164 149       5.3597006172839549e+01
164 150       6.7305555555555676e+00
164 160      -3.3306690738754696e-15
164 161      -7.9772469135802467e+01
164 162      -1.4210854715202004e-14
164 163       6.2172489379008766e-15
164 165      -2.1316282072803006e-14
164 175      -5.6089814814814840e+00
164 176       2.7172438271604989e+01
164 177      -3.3652777777777745e+00
164 178       1.1217592592592582e+00
164 179       5.3597006172839542e+01
164 180      -6.7305555555555490e+00
164 205       2.8044907407407407e+00
164 206       2.0317052469135795e+01
164 207      -1.6826944444444443e+01
164 208      -5.6087962962962956e-01
164 209       4.0260169753086430e+01
164 210      -3.3653888888888893e+01
164 220      -5.5511151231257827e-16
164 221      -1.2962901234567902e+01
164 222       1.4654943925052066e-14
164 223       1.7763568394002505e-15
164 224      -2.7421543209876550e+01
164 225       4.4408920985006262e-15
164 235      -2.8044907407407416e+00
164 236       2.0317052469135810e+01
164 237       1.6826944444444443e+01
164 238       5.6087962962962901e-01
164 239       4.0260169753086423e+01
164 240       3.3653888888888886e+01
165 165      -1.6253641975308642e+02
165 145      -5.6087962962962989e-01
165 146      -3.3652777777777749e+00
165 147      -6.4814506172839543e+00
165 148       2.8044907407407411e+00
165 149      -6.7305555555555525e+00
165 150      -1.3710771604938266e+01
165 160      -2.2435185185185187e+00
165 161      -7.1054273576010019e-15
165 162      -7.9772469135802481e+01
165 163       1.1217962962962966e+01
165 164      -2.1316282072803006e-14
165 175      -5.6087962962962956e-01
165 176       3.3652777777777843e+00
165 177      -6.4814506172839330e+00
165 178       2.8044907407407411e+00
165 179       6.7305555555555658e+00
165 180      -1.3710771604938255e+01
165 205      -2.8044907407407411e+00
165 206      -1.6826944444444443e+01
165 207       2.0317052469135799e+01
165 208       5.6087962962962989e-01
165 209      -3.3653888888888893e+01
165 210       4.0260169753086423e+01
165 220      -1.1217962962962964e+01
165 221       8.8817841970012523e-15
165 222       5.4344876543209871e+01
165 223       2.2435185185185200e+00
165 224      -8.8817841970012523e-16
165 225       1.0719401234567900e+02
165 235      -2.8044907407407411e+00
165 236       1.6826944444444443e+01
165 237       2.0317052469135803e+01
165 238       5.6087962962962867e-01
165 239       3.3653888888888893e+01
165 240       4.0260169753086409e+01
166 166      -7.5285596707818925e+01
166 151       8.1019341563786007e+00
166 152      -1.1217592592592616e+00
166 153      -2.8044907407407407e+00
166 154       5.3597325102880626e+00
166 155      -5.6089814814814840e+00
166 156      -5.6087962962962945e-01
166 167       0.0000000000000000e+00
166 168      -1.1217962962962968e+01
166 169      -3.2407736625514403e+01
166 170       2.2204460492503131e-15
166 171      -2.2435185185185196e+00
166 181       8.1019341563786007e+00
166 182       1.1217592592592587e+00
166 183      -2.8044907407407407e+00
166 184       5.3597325102880689e+00
166 185       5.6089814814814840e+00
166 186      -5.6087962962962967e-01
166 211       1.7512633744855968e+01
166 212      -5.6087962962963078e-01
166 213       5.6087962962963045e-01
166 214       9.4106995884773639e+00
166 215      -2.8044907407407411e+00
166 216       2.8044907407407416e+00
166 226       1.6203868312757201e+01
166 227      -4.4408920985006262e-16
166 228       2.2435185185185191e+00
166 229       1.0719465020576127e+01
166 230       1.6653345369377348e-15
166 231       1.1217962962962964e+01
166 241       1.7512633744855972e+01
166 242       5.6087962962962934e-01
166 243       5.6087962962962923e-01
166 244       9.4106995884773674e+00
166 245       2.8044907407407411e+00
166 246       2.8044907407407411e+00
166 379      -5.5555555555555469e-02
166 380       0.0000000000000000e+00
166 381       0.0000000000000000e+00
166 382      -5.5555555555555469e-02
166 383       0.0000000000000000e+00
166 384       0.0000000000000000e+00
166 406       0.0000000000000000e+00
166 407       0.0000000000000000e+00
166 408       0.0000000000000000e+00
166 409       0.0000000000000000e+00
166 410       0.0000000000000000e+00
166 411       0.0000000000000000e+00
167 167      -1.6253641975308651e+02
167 151       1.1217592592592567e+00
167 152       5.3597006172839528e+01
167 153       6.7305555555555543e+00
167 154      -5.6089814814814840e+00
167 155       2.7172438271604932e+01
167 156       3.3652777777777758e+00
167 166       0.0000000000000000e+00
167 168      -7.1054273576010019e-15
167 169       3.5527136788005009e-15
167 170      -7.9772469135802439e+01
167 171      -1.0658141036401503e-14
167 181      -1.1217592592592596e+00
167 182       5.3597006172839528e+01
167 183      -6.7305555555555543e+00
167 184       5.6089814814814840e+00
167 185       2.7172438271604957e+01
167 186      -3.3652777777777798e+00
167 211       5.6087962962962856e-01
167 212       4.0260169753086416e+01
167 213      -3.3653888888888886e+01
167 214      -2.8044907407407411e+00
167 215       2.0317052469135795e+01
167 216      -1.6826944444444440e+01
167 226      -8.8817841970012523e-16
167 227      -2.7421543209876546e+01
167 228      -8.8817841970012523e-16
167 229       1.6653345369377348e-15
167 230      -1.2962901234567903e+01
167 231       1.1102230246251565e-14
167 241      -5.6087962962963012e-01
167 242       4.0260169753086416e+01
167 243       3.3653888888888886e+01
167 244       2.8044907407407411e+00
167 245       2.0317052469135813e+01
167 246       1.6826944444444447e+01
167 379       0.0000000000000000e+00
167 380       0.0000000000000000e+00
167 381       5.5555555555555469e-02
167 382       0.0000000000000000e+00
167 383       0.0000000000000000e+00
167 384       5.5555555555555469e-02
167 406       0.0000000000000000e+00
167 407       0.0000000000000000e+00
167 408       0.0000000000000000e+00
167 409       0.0000000000000000e+00
167 410       0.0000000000000000e+00
167 411       0.0000000000000000e+00
168 168      -1.6253641975308642e+02
168 151      -2.8044907407407407e+00
168 152      -6.7305555555555543e+00
168 153      -1.3710771604938266e+01
168 154       5.6087962962962989e-01
168 155      -3.3652777777777776e+00
168 156      -6.4814506172839499e+00
168 166      -1.1217962962962968e+01
168 167      -7.1054273576010019e-15
168 169       2.2435185185185178e+00
168 170      -1.0658141036401503e-14
168 171      -7.9772469135802467e+01
168 181      -2.8044907407407407e+00
168 182       6.7305555555555561e+00
168 183      -1.3710771604938261e+01
168 184       5.6087962962962945e-01
168 185       3.3652777777777754e+00
168 186      -6.4814506172839454e+00
168 211      -5.6087962962962845e-01
168 212      -3.3653888888888879e+01
168 213       4.0260169753086416e+01
168 214       2.8044907407407416e+00
168 215      -1.6826944444444440e+01
168 216       2.0317052469135795e+01
168 226      -2.2435185185185196e+00
168 227      -5.3290705182007514e-15
168 228       1.0719401234567900e+02
168 229       1.1217962962962964e+01
168 230       7.1054273576010019e-15
168 231       5.4344876543209864e+01
168 241      -5.6087962962962978e-01
168 242       3.3653888888888893e+01
168 243       4.0260169753086416e+01
168 244       2.8044907407407407e+00
168 245       1.6826944444444447e+01
168 246       2.0317052469135799e+01
168 379       0.0000000000000000e+00
168 380       5.5555555555555469e-02
168 381       0.0000000000000000e+00
168 382       0.0000000000000000e+00
168 383       5.5555555555555469e-02
168 384       0.0000000000000000e+00
168 406       0.0000000000000000e+00
168 407       0.0000000000000000e+00
168 408       0.0000000000000000e+00
168 409       0.0000000000000000e+00
168 410       0.0000000000000000e+00
168 411       0.0000000000000000e+00
169 169      -1.5057119341563788e+02
169 151       5.3597325102880662e+00
169 152       5.6089814814814822e+00
169 153       5.6087962962962956e-01
169 154       1.6203868312757216e+01
169 155      -3.7747582837255322e-15
169 156       4.4408920985006262e-16
169 157       5.3597325102880689e+00
169 158      -5.6089814814814849e+00
169 159      -5.6087962962962956e-01
169 166      -3.2407736625514403e+01
169 167       3.5527136788005009e-15
169 168       2.2435185185185178e+00
169 170       3.5527136788005009e-15
169 171      -3.5527136788005009e-15
169 172      -3.2407736625514438e+01
169 173       2.8865798640254070e-15
169 174      -2.2435185185185187e+00
169 181       5.3597325102880635e+00
169 182      -5.6089814814814849e+00
169 183       5.6087962962962945e-01
169 184       1.6203868312757212e+01
169 185      -2.2204460492503131e-16
169 186       1.3322676295501878e-15
169 187       5.3597325102880706e+00
169 188       5.6089814814814840e+00
169 189      -5.6087962962962956e-01
169 211       9.4106995884773674e+00
169 212       2.8044907407407411e+00
169 213      -2.8044907407407393e+00
169 214       3.5025267489711950e+01
169 215      -2.4424906541753444e-15
169 216       2.1094237467877974e-15
169 217       9.4106995884773692e+00
169 218      -2.8044907407407416e+00
169 219       2.8044907407407411e+00
169 226       1.0719465020576131e+01
169 227       1.5543122344752192e-15
169 228      -1.1217962962962964e+01
169 229       3.2407736625514389e+01
169 230      -4.4408920985006262e-16
169 231       8.8817841970012523e-16
169 232       1.0719465020576134e+01
169 233       1.9984014443252818e-15
169 234       1.1217962962962963e+01
169 241       9.4106995884773639e+00
169 242      -2.8044907407407411e+00
169 243      -2.8044907407407407e+00
169 244       3.5025267489711950e+01
169 245      -3.3306690738754696e-16
169 246      -8.8817841970012523e-16
169 247       9.4106995884773710e+00
169 248       2.8044907407407411e+00
169 249       2.8044907407407407e+00
169 406       0.0000000000000000e+00
169 407       0.0000000000000000e+00
169 408       0.0000000000000000e+00
169 409       0.0000000000000000e+00
169 410       0.0000000000000000e+00
169 411       0.0000000000000000e+00
170 170      -3.2507283950617312e+02
170 151       5.6089814814814831e+00
170 152       2.7172438271604957e+01
170 153       3.3652777777777771e+00
170 154      -2.6645352591003757e-15
170 155       1.0719401234567908e+02
170 156       1.3461111111111121e+01
170 157      -5.6089814814814849e+00
170 158       2.7172438271604967e+01
170 159       3.3652777777777789e+00
170 166       2.2204460492503131e-15
170 167      -7.9772469135802439e+01
170 168      -1.0658141036401503e-14
170 169       3.5527136788005009e-15
170 171       7.1054273576010019e-15
170 172       2.2204460492503131e-15
170 173      -7.9772469135802510e+01
170 174       1.4210854715202004e-14
170 181      -5.6089814814814840e+00
170 182       2.7172438271604932e+01
170 183      -3.3652777777777776e+00
170 184      -6.6613381477509392e-16
170 185       1.0719401234567910e+02
170 186      -1.3461111111111123e+01
170 187       5.6089814814814840e+00
170 188       2.7172438271604982e+01
170 189      -3.3652777777777829e+00
170 211       2.8044907407407411e+00
170 212       2.0317052469135813e+01
170 213      -1.6826944444444447e+01
170 214      -2.1094237467877974e-15
170 215       8.0520339506172860e+01
170 216      -6.7307777777777787e+01
170 217      -2.8044907407407411e+00
170 218       2.0317052469135810e+01
170 219      -1.6826944444444450e+01
170 226       1.5543122344752192e-15
170 227      -1.2962901234567900e+01
170 228      -1.0214051826551440e-14
170 229      -4.4408920985006262e-16
170 230      -5.4843086419753121e+01
170 231      -7.9936057773011271e-15
170 232       1.6653345369377348e-15
170 233      -1.2962901234567912e+01
170 234       7.1054273576010019e-15
170 241      -2.8044907407407416e+00
170 242       2.0317052469135795e+01
170 243       1.6826944444444440e+01
170 244      -6.6613381477509392e-16
170 245       8.0520339506172888e+01
170 246       6.7307777777777801e+01
170 247       2.8044907407407416e+00
170 248       2.0317052469135817e+01
170 249       1.6826944444444457e+01
170 406       0.0000000000000000e+00
170 407       0.0000000000000000e+00
170 408       0.0000000000000000e+00
170 409       0.0000000000000000e+00
170 410       0.0000000000000000e+00
170 411       0.0000000000000000e+00
171 171      -3.2507283950617290e+02
171 151      -5.6087962962962923e-01
171 152      -3.3652777777777789e+00
171 153      -6.4814506172839446e+00
171 154       4.4408920985006262e-16
171 155      -1.3461111111111116e+01
171 156      -2.7421543209876525e+01
171 157       5.6087962962963001e-01
171 158      -3.3652777777777829e+00
171 159      -6.4814506172839490e+00
171 166      -2.2435185185185196e+00
171 167      -1.0658141036401503e-14
171 168      -7.9772469135802467e+01
171 169      -3.5527136788005009e-15
171 170       7.1054273576010019e-15
171 172       2.2435185185185178e+00
171 173       1.4210854715202004e-14
171 174      -7.9772469135802510e+01
171 181      -5.6087962962962989e-01
171 182       3.3652777777777771e+00
171 183      -6.4814506172839499e+00
171 184       1.3322676295501878e-15
171 185       1.3461111111111117e+01
171 186      -2.7421543209876535e+01
171 187       5.6087962962962956e-01
171 188       3.3652777777777794e+00
171 189      -6.4814506172839463e+00
171 211      -2.8044907407407402e+00
171 212      -1.6826944444444447e+01
171 213       2.0317052469135799e+01
171 214       2.4424906541753444e-15
171 215      -6.7307777777777787e+01
171 216       8.0520339506172860e+01
171 217       2.8044907407407416e+00
171 218      -1.6826944444444450e+01
171 219       2.0317052469135810e+01
171 226      -1.1217962962962964e+01
171 227      -1.5099033134902129e-14
171 228       5.4344876543209864e+01
171 229      -1.5543122344752192e-15
171 230      -2.1316282072803006e-14
171 231       2.1438802469135805e+02
171 232       1.1217962962962964e+01
171 233       1.2434497875801753e-14
171 234       5.4344876543209892e+01
171 241      -2.8044907407407411e+00
171 242       1.6826944444444443e+01
171 243       2.0317052469135795e+01
171 244      -8.8817841970012523e-16
171 245       6.7307777777777801e+01
171 246       8.0520339506172860e+01
171 247       2.8044907407407411e+00
171 248       1.6826944444444457e+01
171 249       2.0317052469135810e+01
171 406       0.0000000000000000e+00
171 407       0.0000000000000000e+00
171 408       0.0000000000000000e+00
171 409       0.0000000000000000e+00
171 410       0.0000000000000000e+00
171 411       0.0000000000000000e+00
172 172      -1.5057119341563788e+02
172 154       5.3597325102880715e+00
172 155       5.6089814814814831e+00
172 156       5.6087962962962978e-01
172 157       1.6203868312757216e+01
172 158      -1.5543122344752192e-15
172 159       4.4408920985006262e-16
172 160       5.3597325102880715e+00
172 161      -5.6089814814814849e+00
172 162      -5.6087962962962956e-01
172 169      -3.2407736625514438e+01
172 170       2.2204460492503131e-15
172 171       2.2435185185185178e+00
172 173       3.5527136788005009e-15
172 174      -5.3290705182007514e-15
172 175      -3.2407736625514403e+01
172 176      -1.9984014443252818e-15
172 177      -2.2435185185185200e+00
172 184       5.3597325102880671e+00
172 185      -5.6089814814814831e+00
172 186       5.6087962962962945e-01
172 187       1.6203868312757209e+01
172 188       6.6613381477509392e-16
172 189       0.0000000000000000e+00
172 190       5.3597325102880600e+00
172 191       5.6089814814814831e+00
172 192      -5.6087962962962978e-01
172 214       9.4106995884773692e+00
172 215       2.8044907407407407e+00
172 216      -2.8044907407407398e+00
172 217       3.5025267489711950e+01
172 218      -1.1102230246251565e-15
172 219       2.1094237467877974e-15
172 220       9.4106995884773692e+00
172 221      -2.8044907407407420e+00
172 222       2.8044907407407411e+00
172 229       1.0719465020576134e+01
172 230       1.7763568394002505e-15
172 231      -1.1217962962962964e+01
172 232       3.2407736625514403e+01
172 233       8.8817841970012523e-16
172 234       1.3322676295501878e-15
172 235       1.0719465020576127e+01
172 236      -3.3306690738754696e-16
172 237       1.1217962962962964e+01
172 244       9.4106995884773674e+00
172 245      -2.8044907407407411e+00
172 246      -2.8044907407407407e+00
172 247       3.5025267489711943e+01
172 248      -4.4408920985006262e-16
172 249      -5.5511151231257827e-16
172 250       9.4106995884773657e+00
172 251       2.8044907407407411e+00
172 252       2.8044907407407411e+00
173 173      -3.2507283950617307e+02
173 154       5.6089814814814831e+00
173 155       2.7172438271604985e+01
173 156       3.3652777777777798e+00
173 157      -1.9984014443252818e-15
173 158       1.0719401234567908e+02
173 159       1.3461111111111123e+01
173 160      -5.6089814814814858e+00
173 161       2.7172438271604960e+01
173 162       3.3652777777777834e+00
173 169       2.8865798640254070e-15
173 170      -7.9772469135802510e+01
173 171       1.4210854715202004e-14
173 172       3.5527136788005009e-15
173 174       2.1316282072803006e-14
173 175      -8.8817841970012523e-16
173 176      -7.9772469135802424e+01
173 177       7.1054273576010019e-15
173 184      -5.6089814814814831e+00
173 185       2.7172438271604964e+01
173 186      -3.3652777777777820e+00
173 187       4.4408920985006262e-16
173 188       1.0719401234567908e+02
173 189      -1.3461111111111116e+01
173 190       5.6089814814814831e+00
173 191       2.7172438271604925e+01
173 192      -3.3652777777777745e+00
173 214       2.8044907407407407e+00
173 215       2.0317052469135817e+01
173 216      -1.6826944444444454e+01
173 217      -1.5543122344752192e-15
173 218       8.0520339506172874e+01
173 219      -6.7307777777777801e+01
173 220      -2.8044907407407416e+00
173 221       2.0317052469135803e+01
173 222      -1.6826944444444447e+01
173 229       1.8873791418627661e-15
173 230      -1.2962901234567910e+01
173 231      -1.1546319456101628e-14
173 232       1.3322676295501878e-15
173 233      -5.4843086419753106e+01
173 234       8.8817841970012523e-16
173 235      -2.2204460492503131e-16
173 236      -1.2962901234567902e+01
173 237      -5.3290705182007514e-15
173 244      -2.8044907407407411e+00
173 245       2.0317052469135806e+01
173 246       1.6826944444444450e+01
173 247      -5.5511151231257827e-16
173 248       8.0520339506172860e+01
173 249       6.7307777777777787e+01
173 250       2.8044907407407411e+00
173 251       2.0317052469135795e+01
173 252       1.6826944444444440e+01
174 174      -3.2507283950617295e+02
174 154      -5.6087962962962934e-01
174 155      -3.3652777777777834e+00
174 156      -6.4814506172839446e+00
174 157       4.4408920985006262e-16
174 158      -1.3461111111111117e+01
174 159      -2.7421543209876532e+01
174 160       5.6087962962963001e-01
174 161      -3.3652777777777736e+00
174 162      -6.4814506172839410e+00
174 169      -2.2435185185185187e+00
174 170       1.4210854715202004e-14
174 171      -7.9772469135802510e+01
174 172      -5.3290705182007514e-15
174 173       2.1316282072803006e-14
174 175       2.2435185185185169e+00
174 176       7.1054273576010019e-15
174 177      -7.9772469135802453e+01
174 184      -5.6087962962962956e-01
174 185       3.3652777777777771e+00
174 186      -6.4814506172839508e+00
174 187       4.4408920985006262e-16
174 188       1.3461111111111116e+01
174 189      -2.7421543209876532e+01
174 190       5.6087962962962978e-01
174 191       3.3652777777777807e+00
174 192      -6.4814506172839517e+00
174 214      -2.8044907407407402e+00
174 215      -1.6826944444444454e+01
174 216       2.0317052469135810e+01
174 217       2.5535129566378600e-15
174 218      -6.7307777777777801e+01
174 219       8.0520339506172860e+01
174 220       2.8044907407407411e+00
174 221      -1.6826944444444450e+01
174 222       2.0317052469135799e+01
174 229      -1.1217962962962964e+01
174 230      -9.7699626167013776e-15
174 231       5.4344876543209892e+01
174 232      -2.2204460492503131e-16
174 233       1.0658141036401503e-14
174 234       2.1438802469135805e+02
174 235       1.1217962962962964e+01
174 236      -4.4408920985006262e-15
174 237       5.4344876543209871e+01
174 244      -2.8044907407407402e+00
174 245       1.6826944444444450e+01
174 246       2.0317052469135806e+01
174 247      -7.7715611723760958e-16
174 248       6.7307777777777773e+01
174 249       8.0520339506172832e+01
174 250       2.8044907407407411e+00
174 251       1.6826944444444440e+01
174 252       2.0317052469135799e+01
175 175      -1.5057119341563782e+02
175 157       5.3597325102880591e+00
175 158       5.6089814814814813e+00
175 159       5.6087962962962978e-01
175 160       1.6203868312757209e+01
175 161      -8.8817841970012523e-16
175 162       8.8817841970012523e-16
175 163       5.3597325102880777e+00
175 164      -5.6089814814814840e+00
175 165      -5.6087962962962956e-01
175 172      -3.2407736625514403e+01
175 173      -8.8817841970012523e-16
175 174       2.2435185185185169e+00
175 176       9.7699626167013776e-15
175 177      -8.8817841970012523e-16
175 178      -3.2407736625514417e+01
175 179      -5.1070259132757201e-15
175 180      -2.2435185185185196e+00
175 187       5.3597325102880689e+00
175 188      -5.6089814814814858e+00
175 189       5.6087962962962967e-01
175 190       1.6203868312757201e+01
175 191       1.9984014443252818e-15
175 192       8.8817841970012523e-16
175 193       5.3597325102880609e+00
175 194       5.6089814814814831e+00
175 195      -5.6087962962962989e-01
175 217       9.4106995884773674e+00
175 218       2.8044907407407402e+00
175 219      -2.8044907407407398e+00
175 220       3.5025267489711936e+01
175 221      -6.6613381477509392e-16
175 222       1.7763568394002505e-15
175 223       9.4106995884773674e+00
175 224      -2.8044907407407416e+00
175 225       2.8044907407407411e+00
175 232       1.0719465020576127e+01
175 233       0.0000000000000000e+00
175 234      -1.1217962962962963e+01
175 235       3.2407736625514389e+01
175 236       4.4408920985006262e-15
175 237      -4.4408920985006262e-16
175 238       1.0719465020576129e+01
175 239      -1.1102230246251565e-15
175 240       1.1217962962962964e+01
175 247       9.4106995884773674e+00
175 248      -2.8044907407407411e+00
175 249      -2.8044907407407407e+00
175 250       3.5025267489711936e+01
175 251       1.1102230246251565e-16
175 252      -1.1102230246251565e-15
175 253       9.4106995884773639e+00
175 254       2.8044907407407402e+00
175 255       2.8044907407407407e+00
176 176      -3.2507283950617301e+02
176 157       5.6089814814814831e+00
176 158       2.7172438271604925e+01
176 159       3.3652777777777825e+00
176 160      -1.5543122344752192e-15
176 161       1.0719401234567906e+02
176 162       1.3461111111111130e+01
176 163      -5.6089814814814849e+00
176 164       2.7172438271604989e+01
176 165       3.3652777777777843e+00
176 172      -1.9984014443252818e-15
176 173      -7.9772469135802424e+01
176 174       7.1054273576010019e-15
176 175       9.7699626167013776e-15
176 177       0.0000000000000000e+00
176 178      -3.7747582837255322e-15
176 179      -7.9772469135802467e+01
176 180      -1.4210854715202004e-14
176 187      -5.6089814814814849e+00
176 188       2.7172438271604953e+01
176 189      -3.3652777777777754e+00
176 190       2.8865798640254070e-15
176 191       1.0719401234567904e+02
176 192      -1.3461111111111103e+01
176 193       5.6089814814814813e+00
176 194       2.7172438271604928e+01
176 195      -3.3652777777777740e+00
176 217       2.8044907407407402e+00
176 218       2.0317052469135792e+01
176 219      -1.6826944444444443e+01
176 220      -8.8817841970012523e-16
176 221       8.0520339506172846e+01
176 222      -6.7307777777777787e+01
176 223      -2.8044907407407416e+00
176 224       2.0317052469135810e+01
176 225      -1.6826944444444447e+01
176 232      -2.2204460492503131e-16
176 233      -1.2962901234567903e+01
176 234       8.8817841970012523e-15
176 235       4.4408920985006262e-15
176 236      -5.4843086419753099e+01
176 237       1.5099033134902129e-14
176 238      -8.8817841970012523e-16
176 239      -1.2962901234567905e+01
176 240      -7.9936057773011271e-15
176 247      -2.8044907407407411e+00
176 248       2.0317052469135803e+01
176 249       1.6826944444444443e+01
176 250       3.3306690738754696e-16
176 251       8.0520339506172832e+01
176 252       6.7307777777777773e+01
176 253       2.8044907407407402e+00
176 254       2.0317052469135792e+01
176 255       1.6826944444444440e+01
177 177      -3.2507283950617284e+02
177 157      -5.6087962962962934e-01
177 158      -3.3652777777777736e+00
177 159      -6.4814506172839508e+00
177 160       4.4408920985006262e-16
177 161      -1.3461111111111098e+01
177 162      -2.7421543209876518e+01
177 163       5.6087962962963001e-01
177 164      -3.3652777777777745e+00
177 165      -6.4814506172839330e+00
177 172      -2.2435185185185200e+00
177 173       7.1054273576010019e-15
177 174      -7.9772469135802453e+01
177 175      -8.8817841970012523e-16
177 176       0.0000000000000000e+00
177 178       2.2435185185185169e+00
177 179      -1.7763568394002505e-14
177 180      -7.9772469135802467e+01
177 187      -5.6087962962962989e-01
177 188       3.3652777777777834e+00
177 189      -6.4814506172839419e+00
177 190       1.3322676295501878e-15
177 191       1.3461111111111126e+01
177 192      -2.7421543209876525e+01
177 193       5.6087962962962945e-01
177 194       3.3652777777777816e+00
177 195      -6.4814506172839526e+00
177 217      -2.8044907407407402e+00
177 218      -1.6826944444444443e+01
177 219       2.0317052469135795e+01
177 220       1.9984014443252818e-15
177 221      -6.7307777777777773e+01
177 222       8.0520339506172832e+01
177 223       2.8044907407407411e+00
177 224      -1.6826944444444447e+01
177 225       2.0317052469135803e+01
177 232      -1.1217962962962964e+01
177 233       7.1054273576010019e-15
177 234       5.4344876543209864e+01
177 235      -2.2204460492503131e-16
177 236       3.5527136788005009e-15
177 237       2.1438802469135800e+02
177 238       1.1217962962962964e+01
177 239      -1.0658141036401503e-14
177 240       5.4344876543209864e+01
177 247      -2.8044907407407411e+00
177 248       1.6826944444444443e+01
177 249       2.0317052469135799e+01
177 250      -4.4408920985006262e-16
177 251       6.7307777777777773e+01
177 252       8.0520339506172832e+01
177 253       2.8044907407407402e+00
177 254       1.6826944444444443e+01
177 255       2.0317052469135799e+01
178 178      -7.5285596707818939e+01
178 160       5.3597325102880582e+00
178 161       5.6089814814814813e+00
178 162       5.6087962962962989e-01
178 163       8.1019341563786078e+00
178 164       1.1217592592592582e+00
178 165       2.8044907407407411e+00
178 175      -3.2407736625514417e+01
178 176      -3.7747582837255322e-15
178 177       2.2435185185185169e+00
178 179       9.7699626167013776e-15
178 180       1.1217962962962964e+01
178 190       5.3597325102880777e+00
178 191      -5.6089814814814840e+00
178 192       5.6087962962962956e-01
178 193       8.1019341563786096e+00
178 194      -1.1217592592592596e+00
178 195       2.8044907407407416e+00
178 220       9.4106995884773621e+00
178 221       2.8044907407407402e+00
178 222      -2.8044907407407398e+00
178 223       1.7512633744855965e+01
178 224       5.6087962962962901e-01
178 225      -5.6087962962962845e-01
178 235       1.0719465020576129e+01
178 236      -7.7715611723760958e-16
178 237      -1.1217962962962964e+01
178 238       1.6203868312757201e+01
178 239       3.1086244689504383e-15
178 240      -2.2435185185185178e+00
178 250       9.4106995884773657e+00
178 251      -2.8044907407407416e+00
178 252      -2.8044907407407407e+00
178 253       1.7512633744855965e+01
178 254      -5.6087962962962956e-01
178 255      -5.6087962962963023e-01
179 179      -1.6253641975308653e+02
179 160       5.6089814814814813e+00
179 161       2.7172438271604928e+01
179 162       3.3652777777777807e+00
179 163      -1.1217592592592607e+00
179 164       5.3597006172839542e+01
179 165       6.7305555555555658e+00
179 175      -5.1070259132757201e-15
179 176      -7.9772469135802467e+01
179 177      -1.7763568394002505e-14
179 178       9.7699626167013776e-15
179 180      -2.8421709430404007e-14
179 190      -5.6089814814814849e+00
179 191       2.7172438271604985e+01
179 192      -3.3652777777777758e+00
179 193       1.1217592592592600e+00
179 194       5.3597006172839549e+01
179 195      -6.7305555555555525e+00
179 220       2.8044907407407398e+00
179 221       2.0317052469135792e+01
179 222      -1.6826944444444443e+01
179 223      -5.6087962962963001e-01
179 224       4.0260169753086423e+01
179 225      -3.3653888888888886e+01
179 235      -8.8817841970012523e-16
179 236      -1.2962901234567902e+01
179 237       1.7763568394002505e-14
179 238       3.1086244689504383e-15
179 239      -2.7421543209876546e+01
179 240       1.7763568394002505e-14
179 250      -2.8044907407407416e+00
179 251       2.0317052469135810e+01
179 252       1.6826944444444443e+01
179 253       5.6087962962963001e-01
179 254       4.0260169753086430e+01
179 255       3.3653888888888901e+01
180 180      -1.6253641975308645e+02
180 160      -5.6087962962962912e-01
180 161      -3.3652777777777727e+00
180 162      -6.4814506172839508e+00
180 163       2.8044907407407411e+00
180 164      -6.7305555555555490e+00
180 165      -1.3710771604938255e+01
180 175      -2.2435185185185196e+00
180 176      -1.4210854715202004e-14
180 177      -7.9772469135802467e+01
180 178       1.1217962962962964e+01
180 179      -2.8421709430404007e-14
180 190      -5.6087962962962978e-01
180 191       3.3652777777777843e+00
180 192      -6.4814506172839348e+00
180 193       2.8044907407407420e+00
180 194       6.7305555555555676e+00
180 195      -1.3710771604938266e+01
180 220      -2.8044907407407402e+00
180 221      -1.6826944444444440e+01
180 222       2.0317052469135799e+01
180 223       5.6087962962963089e-01
180 224      -3.3653888888888886e+01
180 225       4.0260169753086409e+01
180 235      -1.1217962962962964e+01
180 236       8.8817841970012523e-15
180 237       5.4344876543209864e+01
180 238       2.2435185185185187e+00
180 239       0.0000000000000000e+00
180 240       1.0719401234567900e+02
180 250      -2.8044907407407416e+00
180 251       1.6826944444444447e+01
180 252       2.0317052469135806e+01
180 253       5.6087962962962956e-01
180 254       3.3653888888888901e+01
180 255       4.0260169753086423e+01
181 181      -3.7642798353909463e+01
181 166       8.1019341563786007e+00
181 167      -1.1217592592592596e+00
181 168      -2.8044907407407407e+00
181 169       5.3597325102880635e+00
181 170      -5.6089814814814840e+00
181 171      -5.6087962962962989e-01
181 182       5.6089814814814831e+00
181 183      -5.6089814814814822e+00
181 184      -1.6203868312757198e+01
181 185       1.1217592592592598e+00
181 186      -1.1217592592592598e+00
181 226       1.7512633744855968e+01
181 227      -5.6087962962962989e-01
181 228       5.6087962962962923e-01
181 229       9.4106995884773639e+00
181 230      -2.8044907407407416e+00
181 231       2.8044907407407411e+00
181 241       8.1019341563785936e+00
181 242       2.8044907407407393e+00
181 243       1.1217592592592589e+00
181 244       5.3597325102880644e+00
181 245       5.6087962962963034e-01
181 246       5.6089814814814822e+00
181 382      -5.5555555555555525e-02
181 383       0.0000000000000000e+00
181 384       0.0000000000000000e+00
181 409       0.0000000000000000e+00
181 410       0.0000000000000000e+00
181 411       0.0000000000000000e+00
182 182      -8.1268209876543239e+01
182 166       1.1217592592592587e+00
182 167       5.3597006172839528e+01
182 168       6.7305555555555561e+00
182 169      -5.6089814814814849e+00
182 170       2.7172438271604932e+01
182 171       3.3652777777777771e+00
182 181       5.6089814814814831e+00
182 183       3.3653888888888879e+01
182 184      -1.1217592592592589e+00
182 185      -3.9886234567901212e+01
182 186       1.6826944444444436e+01
182 226       5.6087962962962967e-01
182 227       4.0260169753086416e+01
182 228      -3.3653888888888879e+01
182 229      -2.8044907407407416e+00
182 230       2.0317052469135795e+01
182 231      -1.6826944444444443e+01
182 241       2.8044907407407402e+00
182 242      -1.3710771604938277e+01
182 243      -6.7305555555555578e+00
182 244      -5.6087962962962901e-01
182 245      -6.4814506172839490e+00
182 246      -3.3652777777777745e+00
182 382       0.0000000000000000e+00
182 383       0.0000000000000000e+00
182 384       5.5555555555555525e-02
182 409       0.0000000000000000e+00
182 410       0.0000000000000000e+00
182 411       0.0000000000000000e+00
183 183      -8.1268209876543196e+01
183 166      -2.8044907407407407e+00
183 167      -6.7305555555555543e+00
183 168      -1.3710771604938261e+01
183 169       5.6087962962962945e-01
183 170      -3.3652777777777776e+00
183 171      -6.4814506172839499e+00
183 181      -5.6089814814814822e+00
183 182       3.3653888888888879e+01
183 184       1.1217592592592589e+00
183 185       1.6826944444444443e+01
183 186      -3.9886234567901226e+01
183 226      -5.6087962962962956e-01
183 227      -3.3653888888888879e+01
183 228       4.0260169753086416e+01
183 229       2.8044907407407407e+00
183 230      -1.6826944444444443e+01
183 231       2.0317052469135795e+01
183 241      -1.1217592592592593e+00
183 242       6.7305555555555499e+00
183 243       5.3597006172839485e+01
183 244       5.6089814814814822e+00
183 245       3.3652777777777816e+00
183 246       2.7172438271604932e+01
183 382       0.0000000000000000e+00
183 383       5.5555555555555525e-02
183 384       0.0000000000000000e+00
183 409       0.0000000000000000e+00
183 410       0.0000000000000000e+00
183 411       0.0000000000000000e+00
184 184      -7.5285596707818954e+01
184 166       5.3597325102880689e+00
184 167       5.6089814814814840e+00
184 168       5.6087962962962945e-01
184 169       1.6203868312757212e+01
184 170      -6.6613381477509392e-16
184 171       1.3322676295501878e-15
184 172       5.3597325102880671e+00
184 173      -5.6089814814814831e+00
184 174      -5.6087962962962956e-01
184 181      -1.6203868312757198e+01
184 182      -1.1217592592592589e+00
184 183       1.1217592592592589e+00
184 185      -8.8817841970012523e-16
184 186       1.7763568394002505e-15
184 187      -1.6203868312757223e+01
184 188       1.1217592592592598e+00
184 189      -1.1217592592592598e+00
184 226       9.4106995884773657e+00
184 227       2.8044907407407411e+00
184 228      -2.8044907407407407e+00
184 229       3.5025267489711950e+01
184 230      -7.7715611723760958e-16
184 231      -4.4408920985006262e-16
184 232       9.4106995884773674e+00
184 233      -2.8044907407407411e+00
184 234       2.8044907407407411e+00
184 241       5.3597325102880653e+00
184 242      -5.6087962962962901e-01
184 243      -5.6089814814814822e+00
184 244       1.6203868312757201e+01
184 245      -4.4408920985006262e-16
184 246      -2.2204460492503131e-16
184 247       5.3597325102880662e+00
184 248       5.6087962962963023e-01
184 249       5.6089814814814813e+00
184 409       0.0000000000000000e+00
184 410       0.0000000000000000e+00
184 411       0.0000000000000000e+00
185 185      -1.6253641975308659e+02
185 166       5.6089814814814840e+00
185 167       2.7172438271604957e+01
185 168       3.3652777777777754e+00
185 169      -2.2204460492503131e-16
185 170       1.0719401234567910e+02
185 171       1.3461111111111117e+01
185 172      -5.6089814814814831e+00
185 173       2.7172438271604964e+01
185 174       3.3652777777777771e+00
185 181       1.1217592592592598e+00
185 182      -3.9886234567901212e+01
185 183       1.6826944444444443e+01
185 184      -8.8817841970012523e-16
185 186       6.7307777777777801e+01
185 187      -1.1217592592592593e+00
185 188      -3.9886234567901248e+01
185 189       1.6826944444444461e+01
185 226       2.8044907407407411e+00
185 227       2.0317052469135810e+01
185 228      -1.6826944444444447e+01
185 229      -4.4408920985006262e-16
185 230       8.0520339506172860e+01
185 231      -6.7307777777777801e+01
185 232      -2.8044907407407411e+00
185 233       2.0317052469135806e+01
185 234      -1.6826944444444450e+01
185 241       5.6087962962963023e-01
185 242      -6.4814506172839472e+00
185 243      -3.3652777777777843e+00
185 244      -4.4408920985006262e-16
185 245      -2.7421543209876560e+01
185 246      -1.3461111111111130e+01
185 247      -5.6087962962962934e-01
185 248      -6.4814506172839570e+00
185 249      -3.3652777777777798e+00
185 409       0.0000000000000000e+00
185 410       0.0000000000000000e+00
185 411       0.0000000000000000e+00
186 186      -1.6253641975308645e+02
186 166      -5.6087962962962967e-01
186 167      -3.3652777777777798e+00
186 168      -6.4814506172839454e+00
186 169       1.3322676295501878e-15
186 170      -1.3461111111111123e+01
186 171      -2.7421543209876535e+01
186 172       5.6087962962962945e-01
186 173      -3.3652777777777820e+00
186 174      -6.4814506172839508e+00
186 181      -1.1217592592592598e+00
186 182       1.6826944444444436e+01
186 183      -3.9886234567901226e+01
186 184       1.7763568394002505e-15
186 185       6.7307777777777801e+01
186 187       1.1217592592592591e+00
186 188       1.6826944444444461e+01
186 189      -3.9886234567901262e+01
186 226      -2.8044907407407411e+00
186 227      -1.6826944444444447e+01
186 228       2.0317052469135799e+01
186 229      -2.2204460492503131e-16
186 230      -6.7307777777777801e+01
186 231       8.0520339506172860e+01
186 232       2.8044907407407411e+00
186 233      -1.6826944444444450e+01
186 234       2.0317052469135806e+01
186 241      -5.6089814814814831e+00
186 242       3.3652777777777705e+00
186 243       2.7172438271604932e+01
186 244       4.4408920985006262e-16
186 245       1.3461111111111110e+01
186 246       1.0719401234567904e+02
186 247       5.6089814814814831e+00
186 248       3.3652777777777829e+00
186 249       2.7172438271604950e+01
186 409       0.0000000000000000e+00
186 410       0.0000000000000000e+00
186 411       0.0000000000000000e+00
187 187      -7.5285596707818954e+01
187 169       5.3597325102880706e+00
187 170       5.6089814814814840e+00
187 171       5.6087962962962956e-01
187 172       1.6203868312757209e+01
187 173       4.4408920985006262e-16
187 174       4.4408920985006262e-16
187 175       5.3597325102880689e+00
187 176      -5.6089814814814849e+00
187 177      -5.6087962962962989e-01
187 184      -1.6203868312757223e+01
187 185      -1.1217592592592593e+00
187 186       1.1217592592592591e+00
187 188       8.8817841970012523e-16
187 189       8.8817841970012523e-16
187 190      -1.6203868312757205e+01
187 191       1.1217592592592580e+00
187 192      -1.1217592592592605e+00
187 229       9.4106995884773710e+00
187 230       2.8044907407407416e+00
187 231      -2.8044907407407407e+00
187 232       3.5025267489711943e+01
187 233      -1.1102230246251565e-16
187 234      -2.2204460492503131e-16
187 235       9.4106995884773692e+00
187 236      -2.8044907407407416e+00
187 237       2.8044907407407411e+00
187 244       5.3597325102880653e+00
187 245      -5.6087962962962934e-01
187 246      -5.6089814814814813e+00
187 247       1.6203868312757201e+01
187 248       4.4408920985006262e-16
187 249       2.2204460492503131e-16
187 250       5.3597325102880644e+00
187 251       5.6087962962962945e-01
187 252       5.6089814814814831e+00
188 188      -1.6253641975308653e+02
188 169       5.6089814814814840e+00
188 170       2.7172438271604982e+01
188 171       3.3652777777777794e+00
188 172       6.6613381477509392e-16
188 173       1.0719401234567908e+02
188 174       1.3461111111111116e+01
188 175      -5.6089814814814858e+00
188 176       2.7172438271604953e+01
188 177       3.3652777777777834e+00
188 184       1.1217592592592598e+00
188 185      -3.9886234567901248e+01
188 186       1.6826944444444461e+01
188 187       8.8817841970012523e-16
188 189       6.7307777777777801e+01
188 190      -1.1217592592592609e+00
188 191      -3.9886234567901219e+01
188 192       1.6826944444444450e+01
188 229       2.8044907407407411e+00
188 230       2.0317052469135820e+01
188 231      -1.6826944444444454e+01
188 232       2.2204460492503131e-16
188 233       8.0520339506172860e+01
188 234      -6.7307777777777787e+01
188 235      -2.8044907407407416e+00
188 236       2.0317052469135806e+01
188 237      -1.6826944444444447e+01
188 244       5.6087962962963023e-01
188 245      -6.4814506172839588e+00
188 246      -3.3652777777777887e+00
188 247       4.4408920985006262e-16
188 248      -2.7421543209876553e+01
188 249      -1.3461111111111119e+01
188 250      -5.6087962962963012e-01
188 251      -6.4814506172839526e+00
188 252      -3.3652777777777807e+00
189 189      -1.6253641975308645e+02
189 169      -5.6087962962962956e-01
189 170      -3.3652777777777829e+00
189 171      -6.4814506172839463e+00
189 172       0.0000000000000000e+00
189 173      -1.3461111111111116e+01
189 174      -2.7421543209876532e+01
189 175       5.6087962962962967e-01
189 176      -3.3652777777777754e+00
189 177      -6.4814506172839419e+00
189 184      -1.1217592592592598e+00
189 185       1.6826944444444461e+01
189 186      -3.9886234567901262e+01
189 187       8.8817841970012523e-16
189 188       6.7307777777777801e+01
189 190       1.1217592592592589e+00
189 191       1.6826944444444447e+01
189 192      -3.9886234567901234e+01
189 229      -2.8044907407407402e+00
189 230      -1.6826944444444457e+01
189 231       2.0317052469135810e+01
189 232      -1.1102230246251565e-16
189 233      -6.7307777777777787e+01
189 234       8.0520339506172832e+01
189 235       2.8044907407407411e+00
189 236      -1.6826944444444447e+01
189 237       2.0317052469135799e+01
189 244      -5.6089814814814822e+00
189 245       3.3652777777777731e+00
189 246       2.7172438271604950e+01
189 247       4.4408920985006262e-16
189 248       1.3461111111111109e+01
189 249       1.0719401234567903e+02
189 250       5.6089814814814813e+00
189 251       3.3652777777777771e+00
189 252       2.7172438271604936e+01
190 190      -7.5285596707818911e+01
190 172       5.3597325102880600e+00
190 173       5.6089814814814831e+00
190 174       5.6087962962962978e-01
190 175       1.6203868312757201e+01
190 176       2.8865798640254070e-15
190 177       1.3322676295501878e-15
190 178       5.3597325102880777e+00
190 179      -5.6089814814814849e+00
190 180      -5.6087962962962978e-01
190 187      -1.6203868312757205e+01
190 188      -1.1217592592592609e+00
190 189       1.1217592592592589e+00
190 191       8.8817841970012523e-16
190 192       3.5527136788005009e-15
190 193      -1.6203868312757205e+01
190 194       1.1217592592592571e+00
190 195      -1.1217592592592598e+00
190 232       9.4106995884773657e+00
190 233       2.8044907407407411e+00
190 234      -2.8044907407407407e+00
190 235       3.5025267489711936e+01
190 236       5.5511151231257827e-16
190 237      -8.8817841970012523e-16
190 238       9.4106995884773674e+00
190 239      -2.8044907407407411e+00
190 240       2.8044907407407411e+00
190 247       5.3597325102880653e+00
190 248      -5.6087962962962989e-01
190 249      -5.6089814814814813e+00
190 250       1.6203868312757194e+01
190 251       8.8817841970012523e-16
190 252      -1.9984014443252818e-15
190 253       5.3597325102880617e+00
190 254       5.6087962962962934e-01
190 255       5.6089814814814813e+00
191 191      -1.6253641975308648e+02
191 172       5.6089814814814831e+00
191 173       2.7172438271604925e+01
191 174       3.3652777777777807e+00
191 175       1.9984014443252818e-15
191 176       1.0719401234567904e+02
191 177       1.3461111111111126e+01
191 178      -5.6089814814814840e+00
191 179       2.7172438271604985e+01
191 180       3.3652777777777843e+00
191 187       1.1217592592592580e+00
191 188      -3.9886234567901219e+01
191 189       1.6826944444444447e+01
191 190       8.8817841970012523e-16
191 192       6.7307777777777773e+01
191 193      -1.1217592592592618e+00
191 194      -3.9886234567901226e+01
191 195       1.6826944444444443e+01
191 232       2.8044907407407411e+00
191 233       2.0317052469135792e+01
191 234      -1.6826944444444443e+01
191 235       5.5511151231257827e-16
191 236       8.0520339506172832e+01
191 237      -6.7307777777777773e+01
191 238      -2.8044907407407411e+00
191 239       2.0317052469135810e+01
191 240      -1.6826944444444447e+01
191 247       5.6087962962962945e-01
191 248      -6.4814506172839526e+00
191 249      -3.3652777777777727e+00
191 250       8.8817841970012523e-16
191 251      -2.7421543209876546e+01
191 252      -1.3461111111111112e+01
191 253      -5.6087962962963012e-01
191 254      -6.4814506172839543e+00
191 255      -3.3652777777777882e+00
192 192      -1.6253641975308639e+02
192 172      -5.6087962962962978e-01
192 173      -3.3652777777777745e+00
192 174      -6.4814506172839517e+00
192 175       8.8817841970012523e-16
192 176      -1.3461111111111103e+01
192 177      -2.7421543209876525e+01
192 178       5.6087962962962956e-01
192 179      -3.3652777777777758e+00
192 180      -6.4814506172839348e+00
192 187      -1.1217592592592605e+00
192 188       1.6826944444444450e+01
192 189      -3.9886234567901234e+01
192 190       3.5527136788005009e-15
192 191       6.7307777777777773e+01
192 193       1.1217592592592585e+00
192 194       1.6826944444444440e+01
192 195      -3.9886234567901226e+01
192 232      -2.8044907407407411e+00
192 233      -1.6826944444444443e+01
192 234       2.0317052469135799e+01
192 235       1.1102230246251565e-16
192 236      -6.7307777777777773e+01
192 237       8.0520339506172832e+01
192 238       2.8044907407407411e+00
192 239      -1.6826944444444447e+01
192 240       2.0317052469135803e+01
192 247      -5.6089814814814822e+00
192 248       3.3652777777777825e+00
192 249       2.7172438271604936e+01
192 250      -1.3322676295501878e-15
192 251       1.3461111111111105e+01
192 252       1.0719401234567897e+02
192 253       5.6089814814814813e+00
192 254       3.3652777777777683e+00
192 255       2.7172438271604918e+01
193 193      -3.7642798353909463e+01
193 175       5.3597325102880609e+00
193 176       5.6089814814814813e+00
193 177       5.6087962962962945e-01
193 178       8.1019341563786096e+00
193 179       1.1217592592592600e+00
193 180       2.8044907407407420e+00
193 190      -1.6203868312757205e+01
193 191      -1.1217592592592618e+00
193 192       1.1217592592592585e+00
193 194      -5.6089814814814822e+00
193 195       5.6089814814814822e+00
193 235       9.4106995884773621e+00
193 236       2.8044907407407402e+00
193 237      -2.8044907407407407e+00
193 238       1.7512633744855968e+01
193 239       5.6087962962962989e-01
193 240      -5.6087962962962978e-01
193 250       5.3597325102880617e+00
193 251      -5.6087962962963023e-01
193 252      -5.6089814814814822e+00
193 253       8.1019341563785936e+00
193 254      -2.8044907407407402e+00
193 255      -1.1217592592592587e+00
194 194      -8.1268209876543239e+01
194 175       5.6089814814814831e+00
194 176       2.7172438271604928e+01
194 177       3.3652777777777816e+00
194 178      -1.1217592592592596e+00
194 179       5.3597006172839549e+01
194 180       6.7305555555555676e+00
194 190       1.1217592592592571e+00
194 191      -3.9886234567901226e+01
194 192       1.6826944444444440e+01
194 193      -5.6089814814814822e+00
194 195       3.3653888888888886e+01
194 235       2.8044907407407402e+00
194 236       2.0317052469135792e+01
194 237      -1.6826944444444443e+01
194 238      -5.6087962962962967e-01
194 239       4.0260169753086430e+01
194 240      -3.3653888888888893e+01
194 250       5.6087962962962934e-01
194 251      -6.4814506172839543e+00
194 252      -3.3652777777777749e+00
194 253      -2.8044907407407407e+00
194 254      -1.3710771604938273e+01
194 255      -6.7305555555555632e+00
195 195      -8.1268209876543182e+01
195 175      -5.6087962962962989e-01
195 176      -3.3652777777777740e+00
195 177      -6.4814506172839526e+00
195 178       2.8044907407407416e+00
195 179      -6.7305555555555525e+00
195 180      -1.3710771604938266e+01
195 190      -1.1217592592592598e+00
195 191       1.6826944444444443e+01
195 192      -3.9886234567901226e+01
195 193       5.6089814814814822e+00
195 194       3.3653888888888886e+01
195 235      -2.8044907407407411e+00
195 236      -1.6826944444444443e+01
195 237       2.0317052469135799e+01
195 238       5.6087962962962978e-01
195 239      -3.3653888888888893e+01
195 240       4.0260169753086423e+01
195 250      -5.6089814814814813e+00
195 251       3.3652777777777780e+00
195 252       2.7172438271604918e+01
195 253       1.1217592592592600e+00
195 254       6.7305555555555472e+00
195 255       5.3597006172839485e+01
196 196      -7.5285596707818939e+01
196 136       8.1019341563786025e+00
196 137      -2.8044907407407416e+00
196 138      -1.1217592592592589e+00
196 139       5.3597325102880662e+00
196 140      -5.6087962962962901e-01
196 141      -5.6089814814814822e+00
196 151       1.7512633744855972e+01
196 152       5.6087962962962934e-01
196 153      -5.6087962962962967e-01
196 154       9.4106995884773674e+00
196 155       2.8044907407407411e+00
196 156      -2.8044907407407411e+00
196 197      -1.1217962962962968e+01
196 198      -8.8817841970012523e-16
196 199      -3.2407736625514417e+01
196 200      -2.2435185185185156e+00
196 201       4.4408920985006262e-16
196 211       1.6203868312757198e+01
196 212       2.2435185185185160e+00
196 213       0.0000000000000000e+00
196 214       1.0719465020576138e+01
196 215       1.1217962962962968e+01
196 216       2.2204460492503131e-16
196 256       8.1019341563786078e+00
196 257      -2.8044907407407407e+00
196 258       1.1217592592592591e+00
196 259       5.3597325102880671e+00
196 260      -5.6087962962962878e-01
196 261       5.6089814814814822e+00
196 271       1.7512633744855968e+01
196 272       5.6087962962962834e-01
196 273       5.6087962962962923e-01
196 274       9.4106995884773639e+00
196 275       2.8044907407407411e+00
196 276       2.8044907407407411e+00
196 376      -5.5555555555555511e-02
196 377       0.0000000000000000e+00
196 378       0.0000000000000000e+00
196 385      -5.5555555555555518e-02
196 386       0.0000000000000000e+00
196 387       0.0000000000000000e+00
196 403       0.0000000000000000e+00
196 404       0.0000000000000000e+00
196 405       0.0000000000000000e+00
196 412       0.0000000000000000e+00
196 413       0.0000000000000000e+00
196 414       0.0000000000000000e+00
197 197      -1.6253641975308648e+02
197 136      -2.8044907407407416e+00
197 137      -1.3710771604938271e+01
197 138      -6.7305555555555578e+00
197 139       5.6087962962963012e-01
197 140      -6.4814506172839526e+00
197 141      -3.3652777777777843e+00
197 151      -5.6087962962963023e-01
197 152       4.0260169753086416e+01
197 153      -3.3653888888888879e+01
197 154       2.8044907407407416e+00
197 155       2.0317052469135810e+01
197 156      -1.6826944444444450e+01
197 196      -1.1217962962962968e+01
197 198       7.1054273576010019e-15
197 199       2.2435185185185205e+00
197 200      -7.9772469135802481e+01
197 201       3.5527136788005009e-15
197 211      -2.2435185185185214e+00
197 212       1.0719401234567901e+02
197 213      -1.7763568394002505e-15
197 214       1.1217962962962968e+01
197 215       5.4344876543209921e+01
197 216       4.4408920985006262e-16
197 256      -2.8044907407407407e+00
197 257      -1.3710771604938261e+01
197 258       6.7305555555555543e+00
197 259       5.6087962962963023e-01
197 260      -6.4814506172839463e+00
197 261       3.3652777777777820e+00
197 271      -5.6087962962963078e-01
197 272       4.0260169753086416e+01
197 273       3.3653888888888886e+01
197 274       2.8044907407407416e+00
197 275       2.0317052469135803e+01
197 276       1.6826944444444447e+01
197 376       0.0000000000000000e+00
197 377       0.0000000000000000e+00
197 378       5.5555555555555511e-02
197 385       0.0000000000000000e+00
197 386       0.0000000000000000e+00
197 387       5.5555555555555518e-02
197 403       0.0000000000000000e+00
197 404       0.0000000000000000e+00
197 405       0.0000000000000000e+00
197 412       0.0000000000000000e+00
197 413       0.0000000000000000e+00
197 414       0.0000000000000000e+00
198 198      -1.6253641975308651e+02
198 136       1.1217592592592600e+00
198 137       6.7305555555555570e+00
198 138       5.3597006172839521e+01
198 139      -5.6089814814814831e+00
198 140       3.3652777777777731e+00
198 141       2.7172438271604946e+01
198 151       5.6087962962962967e-01
198 152      -3.3653888888888886e+01
198 153       4.0260169753086416e+01
198 154      -2.8044907407407411e+00
198 155      -1.6826944444444447e+01
198 156       2.0317052469135803e+01
198 196      -8.8817841970012523e-16
198 197       7.1054273576010019e-15
198 199       8.8817841970012523e-16
198 200       3.5527136788005009e-15
198 201      -7.9772469135802467e+01
198 211       0.0000000000000000e+00
198 212       8.8817841970012523e-16
198 213      -2.7421543209876543e+01
198 214       1.1102230246251565e-16
198 215       8.8817841970012523e-16
198 216      -1.2962901234567894e+01
198 256      -1.1217592592592605e+00
198 257      -6.7305555555555667e+00
198 258       5.3597006172839535e+01
198 259       5.6089814814814822e+00
198 260      -3.3652777777777767e+00
198 261       2.7172438271604953e+01
198 271      -5.6087962962963012e-01
198 272       3.3653888888888886e+01
198 273       4.0260169753086416e+01
198 274       2.8044907407407411e+00
198 275       1.6826944444444447e+01
198 276       2.0317052469135803e+01
198 376       0.0000000000000000e+00
198 377       5.5555555555555511e-02
198 378       0.0000000000000000e+00
198 385       0.0000000000000000e+00
198 386       5.5555555555555518e-02
198 387       0.0000000000000000e+00
198 403       0.0000000000000000e+00
198 404       0.0000000000000000e+00
198 405       0.0000000000000000e+00
198 412       0.0000000000000000e+00
198 413       0.0000000000000000e+00
198 414       0.0000000000000000e+00
199 199      -1.5057119341563788e+02
199 136       5.3597325102880662e+00
199 137       5.6087962962963023e-01
199 138       5.6089814814814831e+00
199 139       1.6203868312757209e+01
199 140      -1.3322676295501878e-15
199 141       0.0000000000000000e+00
199 142       5.3597325102880680e+00
199 143      -5.6087962962962890e-01
199 144      -5.6089814814814822e+00
199 151       9.4106995884773639e+00
199 152      -2.8044907407407411e+00
199 153       2.8044907407407411e+00
199 154       3.5025267489711950e+01
199 155      -8.8817841970012523e-16
199 156       2.2204460492503131e-16
199 157       9.4106995884773692e+00
199 158       2.8044907407407407e+00
199 159      -2.8044907407407411e+00
199 196      -3.2407736625514417e+01
199 197       2.2435185185185205e+00
199 198       8.8817841970012523e-16
199 200      -4.4408920985006262e-15
199 201       0.0000000000000000e+00
199 202      -3.2407736625514417e+01
199 203      -2.2435185185185160e+00
199 204       4.4408920985006262e-16
199 211       1.0719465020576120e+01
199 212      -1.1217962962962964e+01
199 213       0.0000000000000000e+00
199 214       3.2407736625514403e+01
199 215      -1.7763568394002505e-15
199 216       0.0000000000000000e+00
199 217       1.0719465020576139e+01
199 218       1.1217962962962964e+01
199 219       1.1102230246251565e-16
199 256       5.3597325102880671e+00
199 257       5.6087962962963078e-01
199 258      -5.6089814814814831e+00
199 259       1.6203868312757216e+01
199 260       0.0000000000000000e+00
199 261      -6.6613381477509392e-16
199 262       5.3597325102880689e+00
199 263      -5.6087962962962901e-01
199 264       5.6089814814814822e+00
199 271       9.4106995884773621e+00
199 272      -2.8044907407407407e+00
199 273      -2.8044907407407407e+00
199 274       3.5025267489711936e+01
199 275      -1.9984014443252818e-15
199 276      -8.8817841970012523e-16
199 277       9.4106995884773710e+00
199 278       2.8044907407407402e+00
199 279       2.8044907407407407e+00
199 403       0.0000000000000000e+00
199 404       0.0000000000000000e+00
199 405       0.0000000000000000e+00
199 412       0.0000000000000000e+00
199 413       0.0000000000000000e+00
199 414       0.0000000000000000e+00
200 200      -3.2507283950617301e+02
200 136      -5.6087962962962890e-01
200 137      -6.4814506172839534e+00
200 138      -3.3652777777777736e+00
200 139      -8.8817841970012523e-16
200 140      -2.7421543209876539e+01
200 141      -1.3461111111111112e+01
200 142       5.6087962962962978e-01
200 143      -6.4814506172839472e+00
200 144      -3.3652777777777798e+00
200 151      -2.8044907407407416e+00
200 152       2.0317052469135792e+01
200 153      -1.6826944444444443e+01
200 154      -3.3306690738754696e-16
200 155       8.0520339506172860e+01
200 156      -6.7307777777777773e+01
200 157       2.8044907407407411e+00
200 158       2.0317052469135813e+01
200 159      -1.6826944444444454e+01
200 196      -2.2435185185185156e+00
200 197      -7.9772469135802481e+01
200 198       3.5527136788005009e-15
200 199      -4.4408920985006262e-15
200 201       1.4210854715202004e-14
200 202       2.2435185185185205e+00
200 203      -7.9772469135802481e+01
200 204      -7.1054273576010019e-15
200 211      -1.1217962962962964e+01
200 212       5.4344876543209850e+01
200 213       0.0000000000000000e+00
200 214      -1.9984014443252818e-15
200 215       2.1438802469135811e+02
200 216      -1.0658141036401503e-14
200 217       1.1217962962962966e+01
200 218       5.4344876543209935e+01
200 219      -7.1054273576010019e-15
200 256      -5.6087962962962845e-01
200 257      -6.4814506172839463e+00
200 258       3.3652777777777718e+00
200 259      -8.8817841970012523e-16
200 260      -2.7421543209876518e+01
200 261       1.3461111111111116e+01
200 262       5.6087962962963012e-01
200 263      -6.4814506172839437e+00
200 264       3.3652777777777851e+00
200 271      -2.8044907407407411e+00
200 272       2.0317052469135788e+01
200 273       1.6826944444444443e+01
200 274      -1.9984014443252818e-15
200 275       8.0520339506172860e+01
200 276       6.7307777777777801e+01
200 277       2.8044907407407402e+00
200 278       2.0317052469135810e+01
200 279       1.6826944444444457e+01
200 403       0.0000000000000000e+00
200 404       0.0000000000000000e+00
200 405       0.0000000000000000e+00
200 412       0.0000000000000000e+00
200 413       0.0000000000000000e+00
200 414       0.0000000000000000e+00
201 201      -3.2507283950617301e+02
201 136       5.6089814814814840e+00
201 137       3.3652777777777838e+00
201 138       2.7172438271604939e+01
201 139      -8.8817841970012523e-16
201 140       1.3461111111111112e+01
201 141       1.0719401234567904e+02
201 142      -5.6089814814814822e+00
201 143       3.3652777777777758e+00
201 144       2.7172438271604950e+01
201 151       2.8044907407407411e+00
201 152      -1.6826944444444443e+01
201 153       2.0317052469135799e+01
201 154      -3.3306690738754696e-16
201 155      -6.7307777777777773e+01
201 156       8.0520339506172860e+01
201 157      -2.8044907407407407e+00
201 158      -1.6826944444444450e+01
201 159       2.0317052469135810e+01
201 196       4.4408920985006262e-16
201 197       3.5527136788005009e-15
201 198      -7.9772469135802467e+01
201 199       0.0000000000000000e+00
201 200       1.4210854715202004e-14
201 202       1.1102230246251565e-15
201 203      -3.5527136788005009e-15
201 204      -7.9772469135802481e+01
201 211       2.2204460492503131e-16
201 212       4.4408920985006262e-16
201 213      -1.2962901234567909e+01
201 214       0.0000000000000000e+00
201 215       2.6645352591003757e-15
201 216      -5.4843086419753099e+01
201 217       3.3306690738754696e-16
201 218      -4.4408920985006262e-16
201 219      -1.2962901234567902e+01
201 256      -5.6089814814814822e+00
201 257      -3.3652777777777869e+00
201 258       2.7172438271604946e+01
201 259      -1.9984014443252818e-15
201 260      -1.3461111111111121e+01
201 261       1.0719401234567908e+02
201 262       5.6089814814814822e+00
201 263      -3.3652777777777727e+00
201 264       2.7172438271604960e+01
201 271      -2.8044907407407411e+00
201 272       1.6826944444444440e+01
201 273       2.0317052469135799e+01
201 274      -1.3322676295501878e-15
201 275       6.7307777777777801e+01
201 276       8.0520339506172860e+01
201 277       2.8044907407407411e+00
201 278       1.6826944444444454e+01
201 279       2.0317052469135813e+01
201 403       0.0000000000000000e+00
201 404       0.0000000000000000e+00
201 405       0.0000000000000000e+00
201 412       0.0000000000000000e+00
201 413       0.0000000000000000e+00
201 414       0.0000000000000000e+00
202 202      -1.5057119341563785e+02
202 139       5.3597325102880680e+00
202 140       5.6087962962962978e-01
202 141       5.6089814814814831e+00
202 142       1.6203868312757201e+01
202 143      -8.8817841970012523e-16
202 144      -1.7763568394002505e-15
202 145       5.3597325102880653e+00
202 146      -5.6087962962963012e-01
202 147      -5.6089814814814840e+00
202 154       9.4106995884773657e+00
202 155      -2.8044907407407407e+00
202 156       2.8044907407407411e+00
202 157       3.5025267489711943e+01
202 158       2.2204460492503131e-16
202 159      -1.1102230246251565e-16
202 160       9.4106995884773674e+00
202 161       2.8044907407407411e+00
202 162      -2.8044907407407411e+00
202 199      -3.2407736625514417e+01
202 200       2.2435185185185205e+00
202 201       1.1102230246251565e-15
202 203      -6.2172489379008766e-15
202 204       1.7763568394002505e-15
202 205      -3.2407736625514389e+01
202 206      -2.2435185185185209e+00
202 207       1.1102230246251565e-15
202 214       1.0719465020576123e+01
202 215      -1.1217962962962963e+01
202 216       2.2204460492503131e-16
202 217       3.2407736625514410e+01
202 218       2.6645352591003757e-15
202 219       8.8817841970012523e-16
202 220       1.0719465020576125e+01
202 221       1.1217962962962966e+01
202 222       2.2204460492503131e-16
202 259       5.3597325102880706e+00
202 260       5.6087962962963067e-01
202 261      -5.6089814814814831e+00
202 262       1.6203868312757216e+01
202 263       4.4408920985006262e-16
202 264       2.2204460492503131e-16
202 265       5.3597325102880671e+00
202 266      -5.6087962962963001e-01
202 267       5.6089814814814822e+00
202 274       9.4106995884773657e+00
202 275      -2.8044907407407411e+00
202 276      -2.8044907407407407e+00
202 277       3.5025267489711943e+01
202 278      -1.5543122344752192e-15
202 279      -8.8817841970012523e-16
202 280       9.4106995884773639e+00
202 281       2.8044907407407407e+00
202 282       2.8044907407407411e+00
203 203      -3.2507283950617301e+02
203 139      -5.6087962962962890e-01
203 140      -6.4814506172839472e+00
203 141      -3.3652777777777692e+00
203 142      -8.8817841970012523e-16
203 143      -2.7421543209876539e+01
203 144      -1.3461111111111109e+01
203 145       5.6087962962962934e-01
203 146      -6.4814506172839463e+00
203 147      -3.3652777777777763e+00
203 154      -2.8044907407407411e+00
203 155       2.0317052469135803e+01
203 156      -1.6826944444444450e+01
203 157      -3.3306690738754696e-16
203 158       8.0520339506172860e+01
203 159      -6.7307777777777773e+01
203 160       2.8044907407407411e+00
203 161       2.0317052469135799e+01
203 162      -1.6826944444444443e+01
203 199      -2.2435185185185160e+00
203 200      -7.9772469135802481e+01
203 201      -3.5527136788005009e-15
203 202      -6.2172489379008766e-15
203 204      -7.1054273576010019e-15
203 205       2.2435185185185191e+00
203 206      -7.9772469135802424e+01
203 207       3.5527136788005009e-15
203 214      -1.1217962962962964e+01
203 215       5.4344876543209871e+01
203 216      -6.2172489379008766e-15
203 217      -4.4408920985006262e-16
203 218       2.1438802469135808e+02
203 219      -5.3290705182007514e-15
203 220       1.1217962962962968e+01
203 221       5.4344876543209850e+01
203 222       6.6613381477509392e-15
203 259      -5.6087962962962834e-01
203 260      -6.4814506172839437e+00
203 261       3.3652777777777758e+00
203 262       0.0000000000000000e+00
203 263      -2.7421543209876518e+01
203 264       1.3461111111111119e+01
203 265       5.6087962962962934e-01
203 266      -6.4814506172839410e+00
203 267       3.3652777777777718e+00
203 274      -2.8044907407407411e+00
203 275       2.0317052469135799e+01
203 276       1.6826944444444454e+01
203 277      -1.3322676295501878e-15
203 278       8.0520339506172832e+01
203 279       6.7307777777777787e+01
203 280       2.8044907407407407e+00
203 281       2.0317052469135788e+01
203 282       1.6826944444444440e+01
204 204      -3.2507283950617295e+02
204 139       5.6089814814814822e+00
204 140       3.3652777777777847e+00
204 141       2.7172438271604950e+01
204 142       4.4408920985006262e-16
204 143       1.3461111111111112e+01
204 144       1.0719401234567903e+02
204 145      -5.6089814814814840e+00
204 146       3.3652777777777807e+00
204 147       2.7172438271604943e+01
204 154       2.8044907407407407e+00
204 155      -1.6826944444444447e+01
204 156       2.0317052469135806e+01
204 157       1.1102230246251565e-16
204 158      -6.7307777777777773e+01
204 159       8.0520339506172846e+01
204 160      -2.8044907407407411e+00
204 161      -1.6826944444444443e+01
204 162       2.0317052469135803e+01
204 199       4.4408920985006262e-16
204 200      -7.1054273576010019e-15
204 201      -7.9772469135802481e+01
204 202       1.7763568394002505e-15
204 203      -7.1054273576010019e-15
204 205       2.2204460492503131e-16
204 206       0.0000000000000000e+00
204 207      -7.9772469135802424e+01
204 214       0.0000000000000000e+00
204 215      -2.2204460492503131e-15
204 216      -1.2962901234567914e+01
204 217       8.8817841970012523e-16
204 218       7.1054273576010019e-15
204 219      -5.4843086419753092e+01
204 220       5.5511151231257827e-16
204 221       6.2172489379008766e-15
204 222      -1.2962901234567905e+01
204 259      -5.6089814814814822e+00
204 260      -3.3652777777777834e+00
204 261       2.7172438271604960e+01
204 262      -1.9984014443252818e-15
204 263      -1.3461111111111109e+01
204 264       1.0719401234567906e+02
204 265       5.6089814814814822e+00
204 266      -3.3652777777777825e+00
204 267       2.7172438271604946e+01
204 274      -2.8044907407407411e+00
204 275       1.6826944444444450e+01
204 276       2.0317052469135810e+01
204 277      -9.9920072216264089e-16
204 278       6.7307777777777773e+01
204 279       8.0520339506172860e+01
204 280       2.8044907407407407e+00
204 281       1.6826944444444443e+01
204 282       2.0317052469135799e+01
205 205      -1.5057119341563782e+02
205 142       5.3597325102880653e+00
205 143       5.6087962962962945e-01
205 144       5.6089814814814840e+00
205 145       1.6203868312757209e+01
205 146       1.3322676295501878e-15
205 147       1.1102230246251565e-15
205 148       5.3597325102880706e+00
205 149      -5.6087962962963045e-01
205 150      -5.6089814814814840e+00
205 157       9.4106995884773692e+00
205 158      -2.8044907407407416e+00
205 159       2.8044907407407416e+00
205 160       3.5025267489711936e+01
205 161       5.5511151231257827e-16
205 162      -1.1102230246251565e-16
205 163       9.4106995884773639e+00
205 164       2.8044907407407407e+00
205 165      -2.8044907407407411e+00
205 202      -3.2407736625514389e+01
205 203       2.2435185185185191e+00
205 204       2.2204460492503131e-16
205 206       3.5527136788005009e-15
205 207       0.0000000000000000e+00
205 208      -3.2407736625514410e+01
205 209      -2.2435185185185222e+00
205 210       2.2204460492503131e-16
205 217       1.0719465020576134e+01
205 218      -1.1217962962962968e+01
205 219       5.5511151231257827e-16
205 220       3.2407736625514382e+01
205 221       1.7763568394002505e-15
205 222       4.4408920985006262e-16
205 223       1.0719465020576122e+01
205 224       1.1217962962962966e+01
205 225       2.2204460492503131e-16
205 262       5.3597325102880671e+00
205 263       5.6087962962963001e-01
205 264      -5.6089814814814840e+00
205 265       1.6203868312757216e+01
205 266       2.6645352591003757e-15
205 267      -8.8817841970012523e-16
205 268       5.3597325102880706e+00
205 269      -5.6087962962963023e-01
205 270       5.6089814814814831e+00
205 277       9.4106995884773674e+00
205 278      -2.8044907407407411e+00
205 279      -2.8044907407407411e+00
205 280       3.5025267489711936e+01
205 281      -1.5543122344752192e-15
205 282      -6.6613381477509392e-16
205 283       9.4106995884773621e+00
205 284       2.8044907407407402e+00
205 285       2.8044907407407407e+00
206 206      -3.2507283950617295e+02
206 142      -5.6087962962963012e-01
206 143      -6.4814506172839463e+00
206 144      -3.3652777777777834e+00
206 145       8.8817841970012523e-16
206 146      -2.7421543209876532e+01
206 147      -1.3461111111111107e+01
206 148       5.6087962962962934e-01
206 149      -6.4814506172839472e+00
206 150      -3.3652777777777700e+00
206 157      -2.8044907407407416e+00
206 158       2.0317052469135806e+01
206 159      -1.6826944444444447e+01
206 160       4.4408920985006262e-16
206 161       8.0520339506172846e+01
206 162      -6.7307777777777773e+01
206 163       2.8044907407407411e+00
206 164       2.0317052469135795e+01
206 165      -1.6826944444444443e+01
206 202      -2.2435185185185209e+00
206 203      -7.9772469135802424e+01
206 204       0.0000000000000000e+00
206 205       3.5527136788005009e-15
206 207      -7.1054273576010019e-15
206 208       2.2435185185185169e+00
206 209      -7.9772469135802467e+01
206 210      -1.0658141036401503e-14
206 217      -1.1217962962962966e+01
206 218       5.4344876543209892e+01
206 219       4.8849813083506888e-15
206 220       1.1102230246251565e-15
206 221       2.1438802469135803e+02
206 222       3.5527136788005009e-15
206 223       1.1217962962962964e+01
206 224       5.4344876543209836e+01
206 225       0.0000000000000000e+00
206 262      -5.6087962962962945e-01
206 263      -6.4814506172839410e+00
206 264       3.3652777777777798e+00
206 265       2.2204460492503131e-15
206 266      -2.7421543209876507e+01
206 267       1.3461111111111123e+01
206 268       5.6087962962962890e-01
206 269      -6.4814506172839419e+00
206 270       3.3652777777777780e+00
206 277      -2.8044907407407411e+00
206 278       2.0317052469135795e+01
206 279       1.6826944444444443e+01
206 280      -1.2212453270876722e-15
206 281       8.0520339506172832e+01
206 282       6.7307777777777773e+01
206 283       2.8044907407407402e+00
206 284       2.0317052469135792e+01
206 285       1.6826944444444440e+01
207 207      -3.2507283950617295e+02
207 142       5.6089814814814849e+00
207 143       3.3652777777777736e+00
207 144       2.7172438271604943e+01
207 145       1.1102230246251565e-15
207 146       1.3461111111111126e+01
207 147       1.0719401234567903e+02
207 148      -5.6089814814814831e+00
207 149       3.3652777777777914e+00
207 150       2.7172438271604953e+01
207 157       2.8044907407407416e+00
207 158      -1.6826944444444447e+01
207 159       2.0317052469135803e+01
207 160       0.0000000000000000e+00
207 161      -6.7307777777777773e+01
207 162       8.0520339506172846e+01
207 163      -2.8044907407407407e+00
207 164      -1.6826944444444443e+01
207 165       2.0317052469135799e+01
207 202       1.1102230246251565e-15
207 203       3.5527136788005009e-15
207 204      -7.9772469135802424e+01
207 205       0.0000000000000000e+00
207 206      -7.1054273576010019e-15
207 208      -2.2204460492503131e-16
207 209      -1.0658141036401503e-14
207 210      -7.9772469135802496e+01
207 217       2.2204460492503131e-16
207 218       6.2172489379008766e-15
207 219      -1.2962901234567893e+01
207 220       0.0000000000000000e+00
207 221       1.2434497875801753e-14
207 222      -5.4843086419753085e+01
207 223       0.0000000000000000e+00
207 224       2.2204460492503131e-15
207 225      -1.2962901234567912e+01
207 262      -5.6089814814814840e+00
207 263      -3.3652777777777763e+00
207 264       2.7172438271604946e+01
207 265      -1.3322676295501878e-15
207 266      -1.3461111111111112e+01
207 267       1.0719401234567904e+02
207 268       5.6089814814814822e+00
207 269      -3.3652777777777807e+00
207 270       2.7172438271604953e+01
207 277      -2.8044907407407420e+00
207 278       1.6826944444444443e+01
207 279       2.0317052469135803e+01
207 280      -5.5511151231257827e-16
207 281       6.7307777777777773e+01
207 282       8.0520339506172832e+01
207 283       2.8044907407407411e+00
207 284       1.6826944444444443e+01
207 285       2.0317052469135799e+01
208 208      -7.5285596707818939e+01
208 145       5.3597325102880706e+00
208 146       5.6087962962962923e-01
208 147       5.6089814814814831e+00
208 148       8.1019341563786078e+00
208 149       2.8044907407407420e+00
208 150       1.1217592592592598e+00
208 160       9.4106995884773674e+00
208 161      -2.8044907407407416e+00
208 162       2.8044907407407411e+00
208 163       1.7512633744855968e+01
208 164      -5.6087962962962956e-01
208 165       5.6087962962962989e-01
208 205      -3.2407736625514410e+01
208 206       2.2435185185185169e+00
208 207      -2.2204460492503131e-16
208 209       1.1217962962962968e+01
208 210       1.7763568394002505e-15
208 220       1.0719465020576138e+01
208 221      -1.1217962962962966e+01
208 222       1.1102230246251565e-16
208 223       1.6203868312757194e+01
208 224      -2.2435185185185187e+00
208 225       0.0000000000000000e+00
208 265       5.3597325102880706e+00
208 266       5.6087962962962967e-01
208 267      -5.6089814814814831e+00
208 268       8.1019341563786131e+00
208 269       2.8044907407407420e+00
208 270      -1.1217592592592605e+00
208 280       9.4106995884773674e+00
208 281      -2.8044907407407416e+00
208 282      -2.8044907407407407e+00
208 283       1.7512633744855968e+01
208 284      -5.6087962962963067e-01
208 285      -5.6087962962962989e-01
209 209      -1.6253641975308648e+02
209 145      -5.6087962962963056e-01
209 146      -6.4814506172839472e+00
209 147      -3.3652777777777798e+00
209 148       2.8044907407407420e+00
209 149      -1.3710771604938270e+01
209 150      -6.7305555555555490e+00
209 160      -2.8044907407407411e+00
209 161       2.0317052469135810e+01
209 162      -1.6826944444444447e+01
209 163       5.6087962962963001e-01
209 164       4.0260169753086430e+01
209 165      -3.3653888888888893e+01
209 205      -2.2435185185185222e+00
209 206      -7.9772469135802467e+01
209 207      -1.0658141036401503e-14
209 208       1.1217962962962968e+01
209 210      -1.4210854715202004e-14
209 220      -1.1217962962962966e+01
209 221       5.4344876543209907e+01
209 222      -2.2204460492503131e-15
209 223       2.2435185185185196e+00
209 224       1.0719401234567901e+02
209 225       1.7763568394002505e-15
209 265      -5.6087962962962956e-01
209 266      -6.4814506172839419e+00
209 267       3.3652777777777896e+00
209 268       2.8044907407407420e+00
209 269      -1.3710771604938257e+01
209 270       6.7305555555555729e+00
209 280      -2.8044907407407411e+00
209 281       2.0317052469135806e+01
209 282       1.6826944444444447e+01
209 283       5.6087962962962878e-01
209 284       4.0260169753086416e+01
209 285       3.3653888888888893e+01
210 210      -1.6253641975308653e+02
210 145       5.6089814814814840e+00
210 146       3.3652777777777807e+00
210 147       2.7172438271604953e+01
210 148      -1.1217592592592605e+00
210 149       6.7305555555555765e+00
210 150       5.3597006172839535e+01
210 160       2.8044907407407411e+00
210 161      -1.6826944444444447e+01
210 162       2.0317052469135806e+01
210 163      -5.6087962962962967e-01
210 164      -3.3653888888888893e+01
210 165       4.0260169753086423e+01
210 205       2.2204460492503131e-16
210 206      -1.0658141036401503e-14
210 207      -7.9772469135802496e+01
210 208       1.7763568394002505e-15
210 209      -1.4210854715202004e-14
210 220       7.7715611723760958e-16
210 221       3.1086244689504383e-15
210 222      -1.2962901234567894e+01
210 223       0.0000000000000000e+00
210 224       8.8817841970012523e-16
210 225      -2.7421543209876546e+01
210 265      -5.6089814814814840e+00
210 266      -3.3652777777777718e+00
210 267       2.7172438271604953e+01
210 268       1.1217592592592587e+00
210 269      -6.7305555555555525e+00
210 270       5.3597006172839542e+01
210 280      -2.8044907407407411e+00
210 281       1.6826944444444447e+01
210 282       2.0317052469135803e+01
210 283       5.6087962962962934e-01
210 284       3.3653888888888893e+01
210 285       4.0260169753086423e+01
211 211      -1.5057119341563785e+02
211 136       1.7512633744855972e+01
211 137      -5.6087962962963034e-01
211 138      -5.6087962962962978e-01
211 139       9.4106995884773639e+00
211 140      -2.8044907407407416e+00
211 141      -2.8044907407407411e+00
211 151       1.6203868312757201e+01
211 152       4.4408920985006262e-16
211 153      -2.2435185185185187e+00
211 154       1.0719465020576132e+01
211 155       1.5543122344752192e-15
211 156      -1.1217962962962966e+01
211 166       1.7512633744855968e+01
211 167       5.6087962962962856e-01
211 168      -5.6087962962962845e-01
211 169       9.4106995884773674e+00
211 170       2.8044907407407411e+00
211 171      -2.8044907407407402e+00
211 196       1.6203868312757198e+01
211 197      -2.2435185185185214e+00
211 198       0.0000000000000000e+00
211 199       1.0719465020576120e+01
211 200      -1.1217962962962964e+01
211 201       2.2204460492503131e-16
211 212      -8.8817841970012523e-16
211 213      -3.5527136788005009e-15
211 214      -6.4815473251028806e+01
211 215       6.2172489379008766e-15
211 216       1.9984014443252818e-15
211 226       1.6203868312757201e+01
211 227       2.2435185185185142e+00
211 228      -4.4408920985006262e-16
211 229       1.0719465020576138e+01
211 230       1.1217962962962964e+01
211 231       0.0000000000000000e+00
211 256       1.7512633744855975e+01
211 257      -5.6087962962962945e-01
211 258       5.6087962962962967e-01
211 259       9.4106995884773639e+00
211 260      -2.8044907407407407e+00
211 261       2.8044907407407407e+00
211 271       1.6203868312757205e+01
211 272       8.8817841970012523e-16
211 273       2.2435185185185178e+00
211 274       1.0719465020576131e+01
211 275       6.6613381477509392e-16
211 276       1.1217962962962964e+01
211 286       1.7512633744855968e+01
211 287       5.6087962962962779e-01
211 288       5.6087962962962790e-01
211 289       9.4106995884773657e+00
211 290       2.8044907407407402e+00
211 291       2.8044907407407402e+00
211 376      -5.5555555555555546e-02
211 377       0.0000000000000000e+00
211 378       0.0000000000000000e+00
211 379      -5.5555555555555539e-02
211 380       0.0000000000000000e+00
211 381       0.0000000000000000e+00
211 385      -5.5555555555555455e-02
211 386       0.0000000000000000e+00
211 387       0.0000000000000000e+00
211 388      -5.5555555555555497e-02
211 389       0.0000000000000000e+00
211 390       0.0000000000000000e+00
211 403       0.0000000000000000e+00
211 404       0.0000000000000000e+00
211 405       0.0000000000000000e+00
211 406       0.0000000000000000e+00
211 407       0.0000000000000000e+00
211 408       0.0000000000000000e+00
211 412       0.0000000000000000e+00
211 413       0.0000000000000000e+00
211 414       0.0000000000000000e+00
211 415       0.0000000000000000e+00
211 416       0.0000000000000000e+00
211 417       0.0000000000000000e+00
212 212      -3.2507283950617290e+02
212 136       5.6087962962962923e-01
212 137       4.0260169753086416e+01
212 138       3.3653888888888886e+01
212 139      -2.8044907407407407e+00
212 140       2.0317052469135792e+01
212 141       1.6826944444444440e+01
212 151       0.0000000000000000e+00
212 152      -2.7421543209876539e+01
212 153      -2.6645352591003757e-15
212 154       1.2212453270876722e-15
212 155      -1.2962901234567898e+01
212 156      -1.4654943925052066e-14
212 166      -5.6087962962963078e-01
212 167       4.0260169753086416e+01
212 168      -3.3653888888888879e+01
212 169       2.8044907407407411e+00
212 170       2.0317052469135813e+01
212 171      -1.6826944444444447e+01
212 196       2.2435185185185160e+00
212 197       1.0719401234567901e+02
212 198       8.8817841970012523e-16
212 199      -1.1217962962962964e+01
212 200       5.4344876543209850e+01
212 201       4.4408920985006262e-16
212 211      -8.8817841970012523e-16
212 213       0.0000000000000000e+00
212 214       5.5511151231257827e-15
212 215      -1.5954493827160491e+02
212 216       1.0658141036401503e-14
212 226      -2.2435185185185240e+00
212 227       1.0719401234567903e+02
212 228      -1.7763568394002505e-15
212 229       1.1217962962962964e+01
212 230       5.4344876543209921e+01
212 231      -1.7763568394002505e-15
212 256       5.6087962962963001e-01
212 257       4.0260169753086423e+01
212 258      -3.3653888888888893e+01
212 259      -2.8044907407407402e+00
212 260       2.0317052469135792e+01
212 261      -1.6826944444444440e+01
212 271       4.4408920985006262e-16
212 272      -2.7421543209876532e+01
212 273      -4.4408920985006262e-15
212 274       8.8817841970012523e-16
212 275      -1.2962901234567894e+01
212 276       6.6613381477509392e-15
212 286      -5.6087962962963167e-01
212 287       4.0260169753086409e+01
212 288       3.3653888888888886e+01
212 289       2.8044907407407411e+00
212 290       2.0317052469135803e+01
212 291       1.6826944444444447e+01
212 376       0.0000000000000000e+00
212 377       0.0000000000000000e+00
212 378       5.5555555555555546e-02
212 379       0.0000000000000000e+00
212 380       0.0000000000000000e+00
212 381       5.5555555555555539e-02
212 385       0.0000000000000000e+00
212 386       0.0000000000000000e+00
212 387       5.5555555555555455e-02
212 388       0.0000000000000000e+00
212 389       0.0000000000000000e+00
212 390       5.5555555555555497e-02
212 403       0.0000000000000000e+00
212 404       0.0000000000000000e+00
212 405       0.0000000000000000e+00
212 406       0.0000000000000000e+00
212 407       0.0000000000000000e+00
212 408       0.0000000000000000e+00
212 412       0.0000000000000000e+00
212 413       0.0000000000000000e+00
212 414       0.0000000000000000e+00
212 415       0.0000000000000000e+00
212 416       0.0000000000000000e+00
212 417       0.0000000000000000e+00
213 213      -3.2507283950617290e+02
213 136       5.6087962962962978e-01
213 137       3.3653888888888886e+01
213 138       4.0260169753086416e+01
213 139      -2.8044907407407411e+00
213 140       1.6826944444444443e+01
213 141       2.0317052469135799e+01
213 151       2.2435185185185174e+00
213 152      -3.5527136788005009e-15
213 153       1.0719401234567903e+02
213 154      -1.1217962962962966e+01
213 155      -1.2878587085651816e-14
213 156       5.4344876543209878e+01
213 166       5.6087962962963045e-01
213 167      -3.3653888888888886e+01
213 168       4.0260169753086416e+01
213 169      -2.8044907407407393e+00
213 170      -1.6826944444444447e+01
213 171       2.0317052469135799e+01
213 196       0.0000000000000000e+00
213 197      -1.7763568394002505e-15
213 198      -2.7421543209876543e+01
213 199       0.0000000000000000e+00
213 200       0.0000000000000000e+00
213 201      -1.2962901234567909e+01
213 211      -3.5527136788005009e-15
213 212       0.0000000000000000e+00
213 214       1.5543122344752192e-15
213 215       1.4210854715202004e-14
213 216      -1.5954493827160491e+02
213 226       4.4408920985006262e-16
213 227       2.6645352591003757e-15
213 228      -2.7421543209876535e+01
213 229       3.3306690738754696e-16
213 230       0.0000000000000000e+00
213 231      -1.2962901234567889e+01
213 256      -5.6087962962963023e-01
213 257      -3.3653888888888893e+01
213 258       4.0260169753086423e+01
213 259       2.8044907407407411e+00
213 260      -1.6826944444444440e+01
213 261       2.0317052469135803e+01
213 271      -2.2435185185185214e+00
213 272      -1.5987211554602254e-14
213 273       1.0719401234567906e+02
213 274       1.1217962962962964e+01
213 275       0.0000000000000000e+00
213 276       5.4344876543209878e+01
213 286      -5.6087962962963156e-01
213 287       3.3653888888888886e+01
213 288       4.0260169753086416e+01
213 289       2.8044907407407407e+00
213 290       1.6826944444444447e+01
213 291       2.0317052469135803e+01
213 376       0.0000000000000000e+00
213 377       5.5555555555555546e-02
213 378       0.0000000000000000e+00
213 379       0.0000000000000000e+00
213 380       5.5555555555555539e-02
213 381       0.0000000000000000e+00
213 385       0.0000000000000000e+00
213 386       5.5555555555555455e-02
213 387       0.0000000000000000e+00
213 388       0.0000000000000000e+00
213 389       5.5555555555555497e-02
213 390       0.0000000000000000e+00
213 403       0.0000000000000000e+00
213 404       0.0000000000000000e+00
213 405       0.0000000000000000e+00
213 406       0.0000000000000000e+00
213 407       0.0000000000000000e+00
213 408       0.0000000000000000e+00
213 412       0.0000000000000000e+00
213 413       0.0000000000000000e+00
213 414       0.0000000000000000e+00
213 415       0.0000000000000000e+00
213 416       0.0000000000000000e+00
213 417       0.0000000000000000e+00
214 214      -3.0114238683127576e+02
214 136       9.4106995884773674e+00
214 137       2.8044907407407416e+00
214 138       2.8044907407407411e+00
214 139       3.5025267489711950e+01
214 140      -1.1102230246251565e-16
214 141       2.2204460492503131e-16
214 142       9.4106995884773657e+00
214 143      -2.8044907407407411e+00
214 144      -2.8044907407407411e+00
214 151       1.0719465020576131e+01
214 152       1.2212453270876722e-15
214 153       1.1217962962962966e+01
214 154       3.2407736625514403e+01
214 155      -8.8817841970012523e-16
214 156       1.9984014443252818e-15
214 157       1.0719465020576134e+01
214 158       1.1102230246251565e-15
214 159      -1.1217962962962964e+01
214 166       9.4106995884773639e+00
214 167      -2.8044907407407411e+00
214 168       2.8044907407407416e+00
214 169       3.5025267489711950e+01
214 170      -2.1094237467877974e-15
214 171       2.4424906541753444e-15
214 172       9.4106995884773692e+00
214 173       2.8044907407407407e+00
214 174      -2.8044907407407402e+00
214 196       1.0719465020576138e+01
214 197       1.1217962962962968e+01
214 198       1.1102230246251565e-16
214 199       3.2407736625514403e+01
214 200      -1.9984014443252818e-15
214 201       0.0000000000000000e+00
214 202       1.0719465020576123e+01
214 203      -1.1217962962962964e+01
214 204       0.0000000000000000e+00
214 211      -6.4815473251028806e+01
214 212       5.5511151231257827e-15
214 213       1.5543122344752192e-15
214 215      -5.3290705182007514e-15
214 216      -2.6645352591003757e-15
214 217      -6.4815473251028848e+01
214 218       4.4408920985006262e-15
214 219       6.6613381477509392e-16
214 226       1.0719465020576123e+01
214 227      -1.1217962962962968e+01
214 228       1.1102230246251565e-16
214 229       3.2407736625514417e+01
214 230      -7.9936057773011271e-15
214 231      -4.4408920985006262e-16
214 232       1.0719465020576143e+01
214 233       1.1217962962962964e+01
214 234       4.4408920985006262e-16
214 256       9.4106995884773692e+00
214 257       2.8044907407407416e+00
214 258      -2.8044907407407411e+00
214 259       3.5025267489711950e+01
214 260       0.0000000000000000e+00
214 261      -5.5511151231257827e-16
214 262       9.4106995884773692e+00
214 263      -2.8044907407407402e+00
214 264       2.8044907407407407e+00
214 271       1.0719465020576134e+01
214 272       2.4424906541753444e-15
214 273      -1.1217962962962964e+01
214 274       3.2407736625514417e+01
214 275       4.4408920985006262e-16
214 276      -1.3322676295501878e-15
214 277       1.0719465020576138e+01
214 278       7.7715611723760958e-16
214 279       1.1217962962962964e+01
214 286       9.4106995884773621e+00
214 287      -2.8044907407407411e+00
214 288      -2.8044907407407416e+00
214 289       3.5025267489711936e+01
214 290      -3.7747582837255322e-15
214 291      -4.1078251911130792e-15
214 292       9.4106995884773692e+00
214 293       2.8044907407407402e+00
214 294       2.8044907407407398e+00
214 403       0.0000000000000000e+00
214 404       0.0000000000000000e+00
214 405       0.0000000000000000e+00
214 406       0.0000000000000000e+00
214 407       0.0000000000000000e+00
214 408       0.0000000000000000e+00
214 412       0.0000000000000000e+00
214 413       0.0000000000000000e+00
214 414       0.0000000000000000e+00
214 415       0.0000000000000000e+00
214 416       0.0000000000000000e+00
214 417       0.0000000000000000e+00
215 215      -6.5014567901234602e+02
215 136       2.8044907407407411e+00
215 137       2.0317052469135810e+01
215 138       1.6826944444444447e+01
215 139      -6.6613381477509392e-16
215 140       8.0520339506172860e+01
215 141       6.7307777777777801e+01
215 142      -2.8044907407407407e+00
215 143       2.0317052469135803e+01
215 144       1.6826944444444450e+01
215 151       1.4432899320127035e-15
215 152      -1.2962901234567902e+01
215 153       7.5495165674510645e-15
215 154      -1.7763568394002505e-15
215 155      -5.4843086419753099e+01
215 156      -1.5099033134902129e-14
215 157       1.5543122344752192e-15
215 158      -1.2962901234567907e+01
215 159      -1.2434497875801753e-14
215 166      -2.8044907407407411e+00
215 167       2.0317052469135795e+01
215 168      -1.6826944444444440e+01
215 169      -2.4424906541753444e-15
215 170       8.0520339506172860e+01
215 171      -6.7307777777777787e+01
215 172       2.8044907407407407e+00
215 173       2.0317052469135817e+01
215 174      -1.6826944444444454e+01
215 196       1.1217962962962968e+01
215 197       5.4344876543209921e+01
215 198       8.8817841970012523e-16
215 199      -1.7763568394002505e-15
215 200       2.1438802469135811e+02
215 201       2.6645352591003757e-15
215 202      -1.1217962962962963e+01
215 203       5.4344876543209871e+01
215 204      -2.2204460492503131e-15
215 211       6.2172489379008766e-15
215 212      -1.5954493827160491e+02
215 213       1.4210854715202004e-14
215 214      -5.3290705182007514e-15
215 216       4.9737991503207013e-14
215 217       6.8833827526759706e-15
215 218      -1.5954493827160496e+02
215 219       1.0658141036401503e-14
215 226      -1.1217962962962966e+01
215 227       5.4344876543209850e+01
215 228      -8.8817841970012523e-16
215 229      -7.5495165674510645e-15
215 230       2.1438802469135811e+02
215 231      -1.2434497875801753e-14
215 232       1.1217962962962964e+01
215 233       5.4344876543209949e+01
215 234      -3.5527136788005009e-15
215 256       2.8044907407407411e+00
215 257       2.0317052469135813e+01
215 258      -1.6826944444444447e+01
215 259       2.2204460492503131e-16
215 260       8.0520339506172874e+01
215 261      -6.7307777777777801e+01
215 262      -2.8044907407407402e+00
215 263       2.0317052469135810e+01
215 264      -1.6826944444444450e+01
215 271       1.8873791418627661e-15
215 272      -1.2962901234567898e+01
215 273      -1.4210854715202004e-14
215 274       4.4408920985006262e-16
215 275      -5.4843086419753085e+01
215 276      -1.4210854715202004e-14
215 277       9.9920072216264089e-16
215 278      -1.2962901234567905e+01
215 279       5.7731597280508140e-15
215 286      -2.8044907407407411e+00
215 287       2.0317052469135792e+01
215 288       1.6826944444444440e+01
215 289      -3.3306690738754696e-15
215 290       8.0520339506172846e+01
215 291       6.7307777777777801e+01
215 292       2.8044907407407402e+00
215 293       2.0317052469135813e+01
215 294       1.6826944444444457e+01
215 403       0.0000000000000000e+00
215 404       0.0000000000000000e+00
215 405       0.0000000000000000e+00
215 406       0.0000000000000000e+00
215 407       0.0000000000000000e+00
215 408       0.0000000000000000e+00
215 412       0.0000000000000000e+00
215 413       0.0000000000000000e+00
215 414       0.0000000000000000e+00
215 415       0.0000000000000000e+00
215 416       0.0000000000000000e+00
215 417       0.0000000000000000e+00
216 216      -6.5014567901234602e+02
216 136       2.8044907407407411e+00
216 137       1.6826944444444447e+01
216 138       2.0317052469135803e+01
216 139      -3.3306690738754696e-16
216 140       6.7307777777777801e+01
216 141       8.0520339506172860e+01
216 142      -2.8044907407407407e+00
216 143       1.6826944444444450e+01
216 144       2.0317052469135806e+01
216 151       1.1217962962962966e+01
216 152       7.9936057773011271e-15
216 153       5.4344876543209878e+01
216 154       4.4408920985006262e-16
216 155      -1.2434497875801753e-14
216 156       2.1438802469135808e+02
216 157      -1.1217962962962964e+01
216 158      -9.3258734068513149e-15
216 159       5.4344876543209899e+01
216 166       2.8044907407407416e+00
216 167      -1.6826944444444440e+01
216 168       2.0317052469135795e+01
216 169       2.1094237467877974e-15
216 170      -6.7307777777777787e+01
216 171       8.0520339506172860e+01
216 172      -2.8044907407407398e+00
216 173      -1.6826944444444454e+01
216 174       2.0317052469135810e+01
216 196       2.2204460492503131e-16
216 197       4.4408920985006262e-16
216 198      -1.2962901234567894e+01
216 199       0.0000000000000000e+00
216 200      -1.0658141036401503e-14
216 201      -5.4843086419753099e+01
216 202       2.2204460492503131e-16
216 203      -6.2172489379008766e-15
216 204      -1.2962901234567914e+01
216 211       1.9984014443252818e-15
216 212       1.0658141036401503e-14
216 213      -1.5954493827160491e+02
216 214      -2.6645352591003757e-15
216 215       4.9737991503207013e-14
216 217       1.7763568394002505e-15
216 218       1.0658141036401503e-14
216 219      -1.5954493827160502e+02
216 226       1.1102230246251565e-16
216 227      -1.7763568394002505e-15
216 228      -1.2962901234567905e+01
216 229       4.4408920985006262e-16
216 230       2.6645352591003757e-15
216 231      -5.4843086419753064e+01
216 232       3.3306690738754696e-16
216 233      -1.3322676295501878e-15
216 234      -1.2962901234567893e+01
216 256      -2.8044907407407411e+00
216 257      -1.6826944444444450e+01
216 258       2.0317052469135806e+01
216 259      -9.9920072216264089e-16
216 260      -6.7307777777777787e+01
216 261       8.0520339506172860e+01
216 262       2.8044907407407411e+00
216 263      -1.6826944444444454e+01
216 264       2.0317052469135810e+01
216 271      -1.1217962962962964e+01
216 272      -1.9984014443252818e-14
216 273       5.4344876543209878e+01
216 274      -2.8865798640254070e-15
216 275      -3.1974423109204508e-14
216 276       2.1438802469135811e+02
216 277       1.1217962962962964e+01
216 278       6.6613381477509392e-15
216 279       5.4344876543209907e+01
216 286      -2.8044907407407420e+00
216 287       1.6826944444444443e+01
216 288       2.0317052469135795e+01
216 289      -3.4416913763379853e-15
216 290       6.7307777777777801e+01
216 291       8.0520339506172846e+01
216 292       2.8044907407407402e+00
216 293       1.6826944444444454e+01
216 294       2.0317052469135813e+01
216 403       0.0000000000000000e+00
216 404       0.0000000000000000e+00
216 405       0.0000000000000000e+00
216 406       0.0000000000000000e+00
216 407       0.0000000000000000e+00
216 408       0.0000000000000000e+00
216 412       0.0000000000000000e+00
216 413       0.0000000000000000e+00
216 414       0.0000000000000000e+00
216 415       0.0000000000000000e+00
216 416       0.0000000000000000e+00
216 417       0.0000000000000000e+00
217 217      -3.0114238683127576e+02
217 139       9.4106995884773692e+00
217 140       2.8044907407407411e+00
217 141       2.8044907407407411e+00
217 142       3.5025267489711943e+01
217 143      -1.1102230246251565e-16
217 144      -1.1102230246251565e-16
217 145       9.4106995884773692e+00
217 146      -2.8044907407407416e+00
217 147      -2.8044907407407411e+00
217 154       1.0719465020576134e+01
217 155       1.3322676295501878e-15
217 156       1.1217962962962964e+01
217 157       3.2407736625514403e+01
217 158       2.2204460492503131e-15
217 159       1.7763568394002505e-15
217 160       1.0719465020576131e+01
217 161      -3.3306690738754696e-16
217 162      -1.1217962962962964e+01
217 169       9.4106995884773692e+00
217 170      -2.8044907407407411e+00
217 171       2.8044907407407416e+00
217 172       3.5025267489711950e+01
217 173      -1.5543122344752192e-15
217 174       2.5535129566378600e-15
217 175       9.4106995884773674e+00
217 176       2.8044907407407402e+00
217 177      -2.8044907407407402e+00
217 199       1.0719465020576139e+01
217 200       1.1217962962962966e+01
217 201       3.3306690738754696e-16
217 202       3.2407736625514410e+01
217 203      -4.4408920985006262e-16
217 204       8.8817841970012523e-16
217 205       1.0719465020576134e+01
217 206      -1.1217962962962966e+01
217 207       2.2204460492503131e-16
217 214      -6.4815473251028848e+01
217 215       6.8833827526759706e-15
217 216       1.7763568394002505e-15
217 218       6.2172489379008766e-15
217 219       2.6645352591003757e-15
217 220      -6.4815473251028806e+01
217 221      -3.1086244689504383e-15
217 222      -4.4408920985006262e-16
217 229       1.0719465020576131e+01
217 230      -1.1217962962962966e+01
217 231       2.2204460492503131e-16
217 232       3.2407736625514424e+01
217 233      -5.9952043329758453e-15
217 234       8.8817841970012523e-16
217 235       1.0719465020576123e+01
217 236       1.1217962962962964e+01
217 237      -2.2204460492503131e-16
217 259       9.4106995884773728e+00
217 260       2.8044907407407416e+00
217 261      -2.8044907407407407e+00
217 262       3.5025267489711950e+01
217 263       8.8817841970012523e-16
217 264      -2.2204460492503131e-16
217 265       9.4106995884773692e+00
217 266      -2.8044907407407411e+00
217 267       2.8044907407407411e+00
217 274       1.0719465020576138e+01
217 275       2.2204460492503131e-15
217 276      -1.1217962962962964e+01
217 277       3.2407736625514417e+01
217 278       3.5527136788005009e-15
217 279      -1.9984014443252818e-15
217 280       1.0719465020576131e+01
217 281      -1.1102230246251565e-15
217 282       1.1217962962962964e+01
217 289       9.4106995884773657e+00
217 290      -2.8044907407407416e+00
217 291      -2.8044907407407407e+00
217 292       3.5025267489711936e+01
217 293      -3.8857805861880479e-15
217 294      -3.4416913763379853e-15
217 295       9.4106995884773639e+00
217 296       2.8044907407407402e+00
217 297       2.8044907407407402e+00
218 218      -6.5014567901234602e+02
218 139       2.8044907407407407e+00
218 140       2.0317052469135813e+01
218 141       1.6826944444444454e+01
218 142       1.1102230246251565e-16
218 143       8.0520339506172860e+01
218 144       6.7307777777777773e+01
218 145      -2.8044907407407416e+00
218 146       2.0317052469135806e+01
218 147       1.6826944444444443e+01
218 154       9.9920072216264089e-16
218 155      -1.2962901234567909e+01
218 156       8.8817841970012523e-15
218 157       1.7763568394002505e-15
218 158      -5.4843086419753099e+01
218 159      -1.2434497875801753e-14
218 160       0.0000000000000000e+00
218 161      -1.2962901234567898e+01
218 162       7.1054273576010019e-15
218 169      -2.8044907407407416e+00
218 170       2.0317052469135810e+01
218 171      -1.6826944444444450e+01
218 172      -1.1102230246251565e-15
218 173       8.0520339506172874e+01
218 174      -6.7307777777777801e+01
218 175       2.8044907407407402e+00
218 176       2.0317052469135792e+01
218 177      -1.6826944444444443e+01
218 199       1.1217962962962964e+01
218 200       5.4344876543209935e+01
218 201      -4.4408920985006262e-16
218 202       2.6645352591003757e-15
218 203       2.1438802469135808e+02
218 204       7.1054273576010019e-15
218 205      -1.1217962962962968e+01
218 206       5.4344876543209892e+01
218 207       6.2172489379008766e-15
218 214       4.4408920985006262e-15
218 215      -1.5954493827160496e+02
218 216       1.0658141036401503e-14
218 217       6.2172489379008766e-15
218 219       3.5527136788005009e-14
218 220      -1.5543122344752192e-15
218 221      -1.5954493827160488e+02
218 222       3.5527136788005009e-15
218 229      -1.1217962962962966e+01
218 230       5.4344876543209892e+01
218 231      -3.1086244689504383e-15
218 232      -4.8849813083506888e-15
218 233       2.1438802469135814e+02
218 234       7.9936057773011271e-15
218 235       1.1217962962962961e+01
218 236       5.4344876543209864e+01
218 237       7.1054273576010019e-15
218 259       2.8044907407407411e+00
218 260       2.0317052469135820e+01
218 261      -1.6826944444444450e+01
218 262       9.9920072216264089e-16
218 263       8.0520339506172860e+01
218 264      -6.7307777777777801e+01
218 265      -2.8044907407407411e+00
218 266       2.0317052469135803e+01
218 267      -1.6826944444444447e+01
218 274       1.9984014443252818e-15
218 275      -1.2962901234567902e+01
218 276      -1.2878587085651816e-14
218 277       3.1086244689504383e-15
218 278      -5.4843086419753078e+01
218 279      -2.6645352591003757e-15
218 280      -1.1102230246251565e-15
218 281      -1.2962901234567894e+01
218 282      -8.4376949871511897e-15
218 289      -2.8044907407407411e+00
218 290       2.0317052469135803e+01
218 291       1.6826944444444454e+01
218 292      -3.1086244689504383e-15
218 293       8.0520339506172832e+01
218 294       6.7307777777777773e+01
218 295       2.8044907407407402e+00
218 296       2.0317052469135792e+01
218 297       1.6826944444444440e+01
219 219      -6.5014567901234591e+02
219 139       2.8044907407407407e+00
219 140       1.6826944444444457e+01
219 141       2.0317052469135810e+01
219 142       0.0000000000000000e+00
219 143       6.7307777777777773e+01
219 144       8.0520339506172846e+01
219 145      -2.8044907407407411e+00
219 146       1.6826944444444443e+01
219 147       2.0317052469135803e+01
219 154       1.1217962962962964e+01
219 155       8.4376949871511897e-15
219 156       5.4344876543209892e+01
219 157       1.3322676295501878e-15
219 158       2.6645352591003757e-15
219 159       2.1438802469135808e+02
219 160      -1.1217962962962968e+01
219 161       8.8817841970012523e-15
219 162       5.4344876543209878e+01
219 169       2.8044907407407411e+00
219 170      -1.6826944444444450e+01
219 171       2.0317052469135810e+01
219 172       2.1094237467877974e-15
219 173      -6.7307777777777801e+01
219 174       8.0520339506172860e+01
219 175      -2.8044907407407398e+00
219 176      -1.6826944444444443e+01
219 177       2.0317052469135795e+01
219 199       1.1102230246251565e-16
219 200      -7.1054273576010019e-15
219 201      -1.2962901234567902e+01
219 202       8.8817841970012523e-16
219 203      -5.3290705182007514e-15
219 204      -5.4843086419753092e+01
219 205       5.5511151231257827e-16
219 206       4.8849813083506888e-15
219 207      -1.2962901234567893e+01
219 214       6.6613381477509392e-16
219 215       1.0658141036401503e-14
219 216      -1.5954493827160502e+02
219 217       2.6645352591003757e-15
219 218       3.5527136788005009e-14
219 220       1.1102230246251565e-15
219 221       0.0000000000000000e+00
219 222      -1.5954493827160491e+02
219 229       6.6613381477509392e-16
219 230       0.0000000000000000e+00
219 231      -1.2962901234567909e+01
219 232       8.8817841970012523e-16
219 233       2.6645352591003757e-15
219 234      -5.4843086419753064e+01
219 235      -2.2204460492503131e-16
219 236       5.7731597280508140e-15
219 237      -1.2962901234567896e+01
219 259      -2.8044907407407416e+00
219 260      -1.6826944444444454e+01
219 261       2.0317052469135817e+01
219 262      -6.6613381477509392e-16
219 263      -6.7307777777777801e+01
219 264       8.0520339506172860e+01
219 265       2.8044907407407407e+00
219 266      -1.6826944444444447e+01
219 267       2.0317052469135799e+01
219 274      -1.1217962962962964e+01
219 275      -1.5099033134902129e-14
219 276       5.4344876543209907e+01
219 277      -4.4408920985006262e-16
219 278      -3.5527136788005009e-15
219 279       2.1438802469135808e+02
219 280       1.1217962962962961e+01
219 281      -3.9968028886505635e-15
219 282       5.4344876543209878e+01
219 289      -2.8044907407407420e+00
219 290       1.6826944444444450e+01
219 291       2.0317052469135806e+01
219 292      -2.6645352591003757e-15
219 293       6.7307777777777773e+01
219 294       8.0520339506172846e+01
219 295       2.8044907407407402e+00
219 296       1.6826944444444436e+01
219 297       2.0317052469135795e+01
220 220      -3.0114238683127564e+02
220 142       9.4106995884773674e+00
220 143       2.8044907407407411e+00
220 144       2.8044907407407411e+00
220 145       3.5025267489711936e+01
220 146       4.4408920985006262e-16
220 147      -2.2204460492503131e-16
220 148       9.4106995884773674e+00
220 149      -2.8044907407407416e+00
220 150      -2.8044907407407416e+00
220 157       1.0719465020576131e+01
220 158       0.0000000000000000e+00
220 159       1.1217962962962966e+01
220 160       3.2407736625514396e+01
220 161       3.9968028886505635e-15
220 162      -6.6613381477509392e-16
220 163       1.0719465020576131e+01
220 164      -5.5511151231257827e-16
220 165      -1.1217962962962964e+01
220 172       9.4106995884773692e+00
220 173      -2.8044907407407416e+00
220 174       2.8044907407407411e+00
220 175       3.5025267489711936e+01
220 176      -8.8817841970012523e-16
220 177       1.9984014443252818e-15
220 178       9.4106995884773621e+00
220 179       2.8044907407407398e+00
220 180      -2.8044907407407402e+00
220 202       1.0719465020576125e+01
220 203       1.1217962962962968e+01
220 204       5.5511151231257827e-16
220 205       3.2407736625514382e+01
220 206       1.1102230246251565e-15
220 207       0.0000000000000000e+00
220 208       1.0719465020576138e+01
220 209      -1.1217962962962966e+01
220 210       7.7715611723760958e-16
220 217      -6.4815473251028806e+01
220 218      -1.5543122344752192e-15
220 219       1.1102230246251565e-15
220 221       1.3322676295501878e-14
220 222       4.4408920985006262e-15
220 223      -6.4815473251028806e+01
220 224      -3.7747582837255322e-15
220 225       1.9984014443252818e-15
220 232       1.0719465020576138e+01
220 233      -1.1217962962962968e+01
220 234      -1.1102230246251565e-16
220 235       3.2407736625514410e+01
220 236      -5.1070259132757201e-15
220 237       8.8817841970012523e-16
220 238       1.0719465020576120e+01
220 239       1.1217962962962963e+01
220 240       0.0000000000000000e+00
220 262       9.4106995884773674e+00
220 263       2.8044907407407411e+00
220 264      -2.8044907407407411e+00
220 265       3.5025267489711936e+01
220 266       1.2212453270876722e-15
220 267      -3.3306690738754696e-16
220 268       9.4106995884773674e+00
220 269      -2.8044907407407407e+00
220 270       2.8044907407407407e+00
220 277       1.0719465020576131e+01
220 278       1.1102230246251565e-16
220 279      -1.1217962962962964e+01
220 280       3.2407736625514403e+01
220 281       4.8849813083506888e-15
220 282      -3.9968028886505635e-15
220 283       1.0719465020576131e+01
220 284      -1.2212453270876722e-15
220 285       1.1217962962962963e+01
220 292       9.4106995884773674e+00
220 293      -2.8044907407407411e+00
220 294      -2.8044907407407411e+00
220 295       3.5025267489711936e+01
220 296      -2.8865798640254070e-15
220 297      -3.5527136788005009e-15
220 298       9.4106995884773621e+00
220 299       2.8044907407407393e+00
220 300       2.8044907407407402e+00
221 221      -6.5014567901234579e+02
221 142       2.8044907407407411e+00
221 143       2.0317052469135799e+01
221 144       1.6826944444444440e+01
221 145       7.7715611723760958e-16
221 146       8.0520339506172846e+01
221 147       6.7307777777777773e+01
221 148      -2.8044907407407416e+00
221 149       2.0317052469135810e+01
221 150       1.6826944444444447e+01
221 157      -3.3306690738754696e-16
221 158      -1.2962901234567898e+01
221 159      -3.9968028886505635e-15
221 160       2.6645352591003757e-15
221 161      -5.4843086419753092e+01
221 162       1.7763568394002505e-15
221 163      -6.6613381477509392e-16
221 164      -1.2962901234567902e+01
221 165       8.8817841970012523e-15
221 172      -2.8044907407407420e+00
221 173       2.0317052469135803e+01
221 174      -1.6826944444444450e+01
221 175      -6.6613381477509392e-16
221 176       8.0520339506172846e+01
221 177      -6.7307777777777773e+01
221 178       2.8044907407407402e+00
221 179       2.0317052469135792e+01
221 180      -1.6826944444444440e+01
221 202       1.1217962962962966e+01
221 203       5.4344876543209850e+01
221 204       6.2172489379008766e-15
221 205       1.7763568394002505e-15
221 206       2.1438802469135803e+02
221 207       1.2434497875801753e-14
221 208      -1.1217962962962966e+01
221 209       5.4344876543209907e+01
221 210       3.1086244689504383e-15
221 217      -3.1086244689504383e-15
221 218      -1.5954493827160488e+02
221 219       0.0000000000000000e+00
221 220       1.3322676295501878e-14
221 222      -1.4210854715202004e-14
221 223      -4.4408920985006262e-15
221 224      -1.5954493827160491e+02
221 225       0.0000000000000000e+00
221 232      -1.1217962962962968e+01
221 233       5.4344876543209899e+01
221 234       5.7731597280508140e-15
221 235      -3.5527136788005009e-15
221 236       2.1438802469135805e+02
221 237       1.1546319456101628e-14
221 238       1.1217962962962963e+01
221 239       5.4344876543209843e+01
221 240      -4.4408920985006262e-16
221 262       2.8044907407407407e+00
221 263       2.0317052469135795e+01
221 264      -1.6826944444444447e+01
221 265       9.9920072216264089e-16
221 266       8.0520339506172832e+01
221 267      -6.7307777777777773e+01
221 268      -2.8044907407407411e+00
221 269       2.0317052469135806e+01
221 270      -1.6826944444444450e+01
221 277       5.5511151231257827e-16
221 278      -1.2962901234567896e+01
221 279       5.7731597280508140e-15
221 280       5.7731597280508140e-15
221 281      -5.4843086419753078e+01
221 282       6.2172489379008766e-15
221 283      -1.7763568394002505e-15
221 284      -1.2962901234567898e+01
221 285      -1.2434497875801753e-14
221 292      -2.8044907407407420e+00
221 293       2.0317052469135799e+01
221 294       1.6826944444444443e+01
221 295      -2.3314683517128287e-15
221 296       8.0520339506172832e+01
221 297       6.7307777777777773e+01
221 298       2.8044907407407398e+00
221 299       2.0317052469135792e+01
221 300       1.6826944444444436e+01
222 222      -6.5014567901234568e+02
222 142       2.8044907407407416e+00
222 143       1.6826944444444440e+01
222 144       2.0317052469135803e+01
222 145       0.0000000000000000e+00
222 146       6.7307777777777773e+01
222 147       8.0520339506172846e+01
222 148      -2.8044907407407411e+00
222 149       1.6826944444444447e+01
222 150       2.0317052469135806e+01
222 157       1.1217962962962966e+01
222 158      -3.5527136788005009e-15
222 159       5.4344876543209878e+01
222 160      -1.7763568394002505e-15
222 161       1.1546319456101628e-14
222 162       2.1438802469135800e+02
222 163      -1.1217962962962964e+01
222 164       1.4654943925052066e-14
222 165       5.4344876543209871e+01
222 172       2.8044907407407411e+00
222 173      -1.6826944444444447e+01
222 174       2.0317052469135799e+01
222 175       1.7763568394002505e-15
222 176      -6.7307777777777787e+01
222 177       8.0520339506172832e+01
222 178      -2.8044907407407398e+00
222 179      -1.6826944444444443e+01
222 180       2.0317052469135799e+01
222 202       2.2204460492503131e-16
222 203       6.6613381477509392e-15
222 204      -1.2962901234567905e+01
222 205       4.4408920985006262e-16
222 206       3.5527136788005009e-15
222 207      -5.4843086419753085e+01
222 208       1.1102230246251565e-16
222 209      -2.2204460492503131e-15
222 210      -1.2962901234567894e+01
222 217      -4.4408920985006262e-16
222 218       3.5527136788005009e-15
222 219      -1.5954493827160491e+02
222 220       4.4408920985006262e-15
222 221      -1.4210854715202004e-14
222 223       2.2204460492503131e-16
222 224      -3.5527136788005009e-15
222 225      -1.5954493827160493e+02
222 232       0.0000000000000000e+00
222 233       7.1054273576010019e-15
222 234      -1.2962901234567887e+01
222 235       1.3322676295501878e-15
222 236       1.9539925233402755e-14
222 237      -5.4843086419753050e+01
222 238      -1.1102230246251565e-16
222 239       8.8817841970012523e-16
222 240      -1.2962901234567905e+01
222 262      -2.8044907407407420e+00
222 263      -1.6826944444444443e+01
222 264       2.0317052469135799e+01
222 265      -5.5511151231257827e-16
222 266      -6.7307777777777773e+01
222 267       8.0520339506172832e+01
222 268       2.8044907407407402e+00
222 269      -1.6826944444444450e+01
222 270       2.0317052469135806e+01
222 277      -1.1217962962962964e+01
222 278       7.5495165674510645e-15
222 279       5.4344876543209878e+01
222 280      -3.3306690738754696e-15
222 281       8.8817841970012523e-16
222 282       2.1438802469135805e+02
222 283       1.1217962962962964e+01
222 284      -1.2878587085651816e-14
222 285       5.4344876543209878e+01
222 292      -2.8044907407407411e+00
222 293       1.6826944444444440e+01
222 294       2.0317052469135799e+01
222 295      -3.1086244689504383e-15
222 296       6.7307777777777773e+01
222 297       8.0520339506172832e+01
222 298       2.8044907407407402e+00
222 299       1.6826944444444440e+01
222 300       2.0317052469135795e+01
223 223      -1.5057119341563782e+02
223 145       9.4106995884773639e+00
223 146       2.8044907407407411e+00
223 147       2.8044907407407416e+00
223 148       1.7512633744855965e+01
223 149       5.6087962962963001e-01
223 150       5.6087962962962989e-01
223 160       1.0719465020576131e+01
223 161      -6.6613381477509392e-16
223 162       1.1217962962962964e+01
223 163       1.6203868312757194e+01
223 164       1.7763568394002505e-15
223 165       2.2435185185185200e+00
223 175       9.4106995884773674e+00
223 176      -2.8044907407407416e+00
223 177       2.8044907407407411e+00
223 178       1.7512633744855965e+01
223 179      -5.6087962962963001e-01
223 180       5.6087962962963089e-01
223 205       1.0719465020576122e+01
223 206       1.1217962962962964e+01
223 207       0.0000000000000000e+00
223 208       1.6203868312757194e+01
223 209       2.2435185185185196e+00
223 210       0.0000000000000000e+00
223 220      -6.4815473251028806e+01
223 221      -4.4408920985006262e-15
223 222       2.2204460492503131e-16
223 224       1.0658141036401503e-14
223 225       2.6645352591003757e-15
223 235       1.0719465020576141e+01
223 236      -1.1217962962962968e+01
223 237       1.1102230246251565e-16
223 238       1.6203868312757209e+01
223 239      -2.2435185185185222e+00
223 240       0.0000000000000000e+00
223 265       9.4106995884773639e+00
223 266       2.8044907407407411e+00
223 267      -2.8044907407407411e+00
223 268       1.7512633744855972e+01
223 269       5.6087962962962989e-01
223 270      -5.6087962962963001e-01
223 280       1.0719465020576132e+01
223 281      -2.2204460492503131e-16
223 282      -1.1217962962962964e+01
223 283       1.6203868312757201e+01
223 284       2.2204460492503131e-15
223 285      -2.2435185185185178e+00
223 295       9.4106995884773657e+00
223 296      -2.8044907407407416e+00
223 297      -2.8044907407407411e+00
223 298       1.7512633744855961e+01
223 299      -5.6087962962963134e-01
223 300      -5.6087962962963134e-01
224 224      -3.2507283950617290e+02
224 145       2.8044907407407407e+00
224 146       2.0317052469135795e+01
224 147       1.6826944444444443e+01
224 148      -5.6087962962962967e-01
224 149       4.0260169753086430e+01
224 150       3.3653888888888901e+01
224 160      -5.5511151231257827e-16
224 161      -1.2962901234567903e+01
224 162      -1.1990408665951691e-14
224 163       2.2204460492503131e-15
224 164      -2.7421543209876550e+01
224 165      -8.8817841970012523e-16
224 175      -2.8044907407407416e+00
224 176       2.0317052469135810e+01
224 177      -1.6826944444444447e+01
224 178       5.6087962962962901e-01
224 179       4.0260169753086423e+01
224 180      -3.3653888888888886e+01
224 205       1.1217962962962966e+01
224 206       5.4344876543209836e+01
224 207       2.2204460492503131e-15
224 208      -2.2435185185185187e+00
224 209       1.0719401234567901e+02
224 210       8.8817841970012523e-16
224 220      -3.7747582837255322e-15
224 221      -1.5954493827160491e+02
224 222      -3.5527136788005009e-15
224 223       1.0658141036401503e-14
224 225       7.1054273576010019e-15
224 235      -1.1217962962962968e+01
224 236       5.4344876543209914e+01
224 237      -4.4408920985006262e-16
224 238       2.2435185185185160e+00
224 239       1.0719401234567904e+02
224 240      -5.3290705182007514e-15
224 265       2.8044907407407407e+00
224 266       2.0317052469135792e+01
224 267      -1.6826944444444447e+01
224 268      -5.6087962962962945e-01
224 269       4.0260169753086430e+01
224 270      -3.3653888888888893e+01
224 280       1.1102230246251565e-16
224 281      -1.2962901234567898e+01
224 282       1.2434497875801753e-14
224 283       1.7763568394002505e-15
224 284      -2.7421543209876543e+01
224 285       1.0658141036401503e-14
224 295      -2.8044907407407416e+00
224 296       2.0317052469135806e+01
224 297       1.6826944444444443e+01
224 298       5.6087962962962812e-01
224 299       4.0260169753086416e+01
224 300       3.3653888888888893e+01
225 225      -3.2507283950617284e+02
225 145       2.8044907407407411e+00
225 146       1.6826944444444440e+01
225 147       2.0317052469135799e+01
225 148      -5.6087962962962967e-01
225 149       3.3653888888888901e+01
225 150       4.0260169753086423e+01
225 160       1.1217962962962966e+01
225 161      -1.1990408665951691e-14
225 162       5.4344876543209871e+01
225 163      -2.2435185185185182e+00
225 164       4.4408920985006262e-15
225 165       1.0719401234567900e+02
225 175       2.8044907407407411e+00
225 176      -1.6826944444444447e+01
225 177       2.0317052469135803e+01
225 178      -5.6087962962962845e-01
225 179      -3.3653888888888886e+01
225 180       4.0260169753086409e+01
225 205       2.2204460492503131e-16
225 206       0.0000000000000000e+00
225 207      -1.2962901234567912e+01
225 208       0.0000000000000000e+00
225 209       1.7763568394002505e-15
225 210      -2.7421543209876546e+01
225 220       1.9984014443252818e-15
225 221       0.0000000000000000e+00
225 222      -1.5954493827160493e+02
225 223       2.6645352591003757e-15
225 224       7.1054273576010019e-15
225 235       1.1102230246251565e-16
225 236       4.4408920985006262e-15
225 237      -1.2962901234567884e+01
225 238       4.4408920985006262e-16
225 239       5.3290705182007514e-15
225 240      -2.7421543209876525e+01
225 265      -2.8044907407407411e+00
225 266      -1.6826944444444443e+01
225 267       2.0317052469135803e+01
225 268       5.6087962962962945e-01
225 269      -3.3653888888888886e+01
225 270       4.0260169753086423e+01
225 280      -1.1217962962962964e+01
225 281       7.1054273576010019e-15
225 282       5.4344876543209878e+01
225 283       2.2435185185185187e+00
225 284      -5.3290705182007514e-15
225 285       1.0719401234567900e+02
225 295      -2.8044907407407411e+00
225 296       1.6826944444444443e+01
225 297       2.0317052469135803e+01
225 298       5.6087962962962790e-01
225 299       3.3653888888888893e+01
225 300       4.0260169753086423e+01
226 226      -1.5057119341563785e+02
226 151       1.7512633744855972e+01
226 152      -5.6087962962963089e-01
226 153      -5.6087962962963067e-01
226 154       9.4106995884773639e+00
226 155      -2.8044907407407411e+00
226 156      -2.8044907407407411e+00
226 166       1.6203868312757201e+01
226 167      -8.8817841970012523e-16
226 168      -2.2435185185185196e+00
226 169       1.0719465020576131e+01
226 170       1.5543122344752192e-15
226 171      -1.1217962962962964e+01
226 181       1.7512633744855968e+01
226 182       5.6087962962962967e-01
226 183      -5.6087962962962956e-01
226 184       9.4106995884773657e+00
226 185       2.8044907407407411e+00
226 186      -2.8044907407407411e+00
226 211       1.6203868312757201e+01
226 212      -2.2435185185185240e+00
226 213       4.4408920985006262e-16
226 214       1.0719465020576123e+01
226 215      -1.1217962962962966e+01
226 216       1.1102230246251565e-16
226 227      -1.7763568394002505e-15
226 228      -4.4408920985006262e-15
226 229      -6.4815473251028806e+01
226 230       6.8833827526759706e-15
226 231      -8.8817841970012523e-16
226 241       1.6203868312757201e+01
226 242       2.2435185185185178e+00
226 243       0.0000000000000000e+00
226 244       1.0719465020576138e+01
226 245       1.1217962962962968e+01
226 246       4.4408920985006262e-16
226 271       1.7512633744855968e+01
226 272      -5.6087962962963023e-01
226 273       5.6087962962963056e-01
226 274       9.4106995884773639e+00
226 275      -2.8044907407407407e+00
226 276       2.8044907407407416e+00
226 286       1.6203868312757201e+01
226 287       4.4408920985006262e-16
226 288       2.2435185185185187e+00
226 289       1.0719465020576132e+01
226 290       1.8873791418627661e-15
226 291       1.1217962962962964e+01
226 301       1.7512633744855968e+01
226 302       5.6087962962962867e-01
226 303       5.6087962962962912e-01
226 304       9.4106995884773657e+00
226 305       2.8044907407407407e+00
226 306       2.8044907407407411e+00
226 379      -5.5555555555555525e-02
226 380       0.0000000000000000e+00
226 381       0.0000000000000000e+00
226 382      -5.5555555555555539e-02
226 383       0.0000000000000000e+00
226 384       0.0000000000000000e+00
226 388      -5.5555555555555462e-02
226 389       0.0000000000000000e+00
226 390       0.0000000000000000e+00
226 391      -5.5555555555555532e-02
226 392       0.0000000000000000e+00
226 393       0.0000000000000000e+00
226 406       0.0000000000000000e+00
226 407       0.0000000000000000e+00
226 408       0.0000000000000000e+00
226 409       0.0000000000000000e+00
226 410       0.0000000000000000e+00
226 411       0.0000000000000000e+00
226 415       0.0000000000000000e+00
226 416       0.0000000000000000e+00
226 417       0.0000000000000000e+00
226 418       0.0000000000000000e+00
226 419       0.0000000000000000e+00
226 420       0.0000000000000000e+00
227 227      -3.2507283950617295e+02
227 151       5.6087962962962834e-01
227 152       4.0260169753086416e+01
227 153       3.3653888888888886e+01
227 154      -2.8044907407407411e+00
227 155       2.0317052469135795e+01
227 156       1.6826944444444440e+01
227 166      -4.4408920985006262e-16
227 167      -2.7421543209876546e+01
227 168      -5.3290705182007514e-15
227 169       1.5543122344752192e-15
227 170      -1.2962901234567900e+01
227 171      -1.5099033134902129e-14
227 181      -5.6087962962962989e-01
227 182       4.0260169753086416e+01
227 183      -3.3653888888888879e+01
227 184       2.8044907407407411e+00
227 185       2.0317052469135810e+01
227 186      -1.6826944444444447e+01
227 211       2.2435185185185142e+00
227 212       1.0719401234567903e+02
227 213       2.6645352591003757e-15
227 214      -1.1217962962962968e+01
227 215       5.4344876543209850e+01
227 216      -1.7763568394002505e-15
227 226      -1.7763568394002505e-15
227 228       7.1054273576010019e-15
227 229       6.4392935428259079e-15
227 230      -1.5954493827160491e+02
227 231       1.0658141036401503e-14
227 241      -2.2435185185185196e+00
227 242       1.0719401234567903e+02
227 243      -2.6645352591003757e-15
227 244       1.1217962962962968e+01
227 245       5.4344876543209921e+01
227 246      -8.8817841970012523e-16
227 271       5.6087962962962956e-01
227 272       4.0260169753086423e+01
227 273      -3.3653888888888901e+01
227 274      -2.8044907407407416e+00
227 275       2.0317052469135795e+01
227 276      -1.6826944444444440e+01
227 286       8.8817841970012523e-16
227 287      -2.7421543209876539e+01
227 288      -4.4408920985006262e-15
227 289       1.2212453270876722e-15
227 290      -1.2962901234567898e+01
227 291       6.2172489379008766e-15
227 301      -5.6087962962963045e-01
227 302       4.0260169753086409e+01
227 303       3.3653888888888886e+01
227 304       2.8044907407407411e+00
227 305       2.0317052469135803e+01
227 306       1.6826944444444443e+01
227 379       0.0000000000000000e+00
227 380       0.0000000000000000e+00
227 381       5.5555555555555525e-02
227 382       0.0000000000000000e+00
227 383       0.0000000000000000e+00
227 384       5.5555555555555539e-02
227 388       0.0000000000000000e+00
227 389       0.0000000000000000e+00
227 390       5.5555555555555462e-02
227 391       0.0000000000000000e+00
227 392       0.0000000000000000e+00
227 393       5.5555555555555532e-02
227 406       0.0000000000000000e+00
227 407       0.0000000000000000e+00
227 408       0.0000000000000000e+00
227 409       0.0000000000000000e+00
227 410       0.0000000000000000e+00
227 411       0.0000000000000000e+00
227 415       0.0000000000000000e+00
227 416       0.0000000000000000e+00
227 417       0.0000000000000000e+00
227 418       0.0000000000000000e+00
227 419       0.0000000000000000e+00
227 420       0.0000000000000000e+00
228 228      -3.2507283950617290e+02
228 151       5.6087962962962790e-01
228 152       3.3653888888888886e+01
228 153       4.0260169753086416e+01
228 154      -2.8044907407407411e+00
228 155       1.6826944444444440e+01
228 156       2.0317052469135795e+01
228 166       2.2435185185185191e+00
228 167      -8.8817841970012523e-16
228 168       1.0719401234567900e+02
228 169      -1.1217962962962964e+01
228 170      -1.0214051826551440e-14
228 171       5.4344876543209864e+01
228 181       5.6087962962962923e-01
228 182      -3.3653888888888879e+01
228 183       4.0260169753086416e+01
228 184      -2.8044907407407407e+00
228 185      -1.6826944444444447e+01
228 186       2.0317052469135799e+01
228 211      -4.4408920985006262e-16
228 212      -1.7763568394002505e-15
228 213      -2.7421543209876535e+01
228 214       1.1102230246251565e-16
228 215      -8.8817841970012523e-16
228 216      -1.2962901234567905e+01
228 226      -4.4408920985006262e-15
228 227       7.1054273576010019e-15
228 229       0.0000000000000000e+00
228 230       1.0658141036401503e-14
228 231      -1.5954493827160491e+02
228 241       0.0000000000000000e+00
228 242      -2.6645352591003757e-15
228 243      -2.7421543209876521e+01
228 244       5.5511151231257827e-16
228 245      -1.7763568394002505e-15
228 246      -1.2962901234567891e+01
228 271      -5.6087962962962901e-01
228 272      -3.3653888888888886e+01
228 273       4.0260169753086423e+01
228 274       2.8044907407407416e+00
228 275      -1.6826944444444440e+01
228 276       2.0317052469135803e+01
228 286      -2.2435185185185222e+00
228 287      -1.2434497875801753e-14
228 288       1.0719401234567903e+02
228 289       1.1217962962962964e+01
228 290       3.5527136788005009e-15
228 291       5.4344876543209878e+01
228 301      -5.6087962962963001e-01
228 302       3.3653888888888886e+01
228 303       4.0260169753086416e+01
228 304       2.8044907407407407e+00
228 305       1.6826944444444443e+01
228 306       2.0317052469135799e+01
228 379       0.0000000000000000e+00
228 380       5.5555555555555525e-02
228 381       0.0000000000000000e+00
228 382       0.0000000000000000e+00
228 383       5.5555555555555539e-02
228 384       0.0000000000000000e+00
228 388       0.0000000000000000e+00
228 389       5.5555555555555462e-02
228 390       0.0000000000000000e+00
228 391       0.0000000000000000e+00
228 392       5.5555555555555532e-02
228 393       0.0000000000000000e+00
228 406       0.0000000000000000e+00
228 407       0.0000000000000000e+00
228 408       0.0000000000000000e+00
228 409       0.0000000000000000e+00
228 410       0.0000000000000000e+00
228 411       0.0000000000000000e+00
228 415       0.0000000000000000e+00
228 416       0.0000000000000000e+00
228 417       0.0000000000000000e+00
228 418       0.0000000000000000e+00
228 419       0.0000000000000000e+00
228 420       0.0000000000000000e+00
229 229      -3.0114238683127576e+02
229 151       9.4106995884773674e+00
229 152       2.8044907407407411e+00
229 153       2.8044907407407407e+00
229 154       3.5025267489711950e+01
229 155      -2.4424906541753444e-15
229 156      -2.5535129566378600e-15
229 157       9.4106995884773657e+00
229 158      -2.8044907407407416e+00
229 159      -2.8044907407407416e+00
229 166       1.0719465020576127e+01
229 167       1.6653345369377348e-15
229 168       1.1217962962962964e+01
229 169       3.2407736625514389e+01
229 170      -4.4408920985006262e-16
229 171      -1.5543122344752192e-15
229 172       1.0719465020576134e+01
229 173       1.8873791418627661e-15
229 174      -1.1217962962962964e+01
229 181       9.4106995884773639e+00
229 182      -2.8044907407407416e+00
229 183       2.8044907407407407e+00
229 184       3.5025267489711950e+01
229 185      -4.4408920985006262e-16
229 186      -2.2204460492503131e-16
229 187       9.4106995884773710e+00
229 188       2.8044907407407411e+00
229 189      -2.8044907407407402e+00
229 211       1.0719465020576138e+01
229 212       1.1217962962962964e+01
229 213       3.3306690738754696e-16
229 214       3.2407736625514417e+01
229 215      -7.5495165674510645e-15
229 216       4.4408920985006262e-16
229 217       1.0719465020576131e+01
229 218      -1.1217962962962966e+01
229 219       6.6613381477509392e-16
229 226      -6.4815473251028806e+01
229 227       6.4392935428259079e-15
229 228       0.0000000000000000e+00
229 230      -1.7763568394002505e-15
229 231       4.4408920985006262e-15
229 232      -6.4815473251028862e+01
229 233       7.3274719625260332e-15
229 234       1.7763568394002505e-15
229 241       1.0719465020576123e+01
229 242      -1.1217962962962966e+01
229 243       3.3306690738754696e-16
229 244       3.2407736625514410e+01
229 245      -8.8817841970012523e-16
229 246       8.8817841970012523e-16
229 247       1.0719465020576141e+01
229 248       1.1217962962962966e+01
229 249       2.2204460492503131e-16
229 271       9.4106995884773674e+00
229 272       2.8044907407407411e+00
229 273      -2.8044907407407402e+00
229 274       3.5025267489711950e+01
229 275      -1.1102230246251565e-15
229 276       1.4432899320127035e-15
229 277       9.4106995884773692e+00
229 278      -2.8044907407407402e+00
229 279       2.8044907407407411e+00
229 286       1.0719465020576132e+01
229 287       2.2204460492503131e-15
229 288      -1.1217962962962964e+01
229 289       3.2407736625514417e+01
229 290       0.0000000000000000e+00
229 291      -2.6645352591003757e-15
229 292       1.0719465020576134e+01
229 293       1.3322676295501878e-15
229 294       1.1217962962962961e+01
229 301       9.4106995884773621e+00
229 302      -2.8044907407407407e+00
229 303      -2.8044907407407407e+00
229 304       3.5025267489711943e+01
229 305      -2.3314683517128287e-15
229 306      -2.1094237467877974e-15
229 307       9.4106995884773728e+00
229 308       2.8044907407407402e+00
229 309       2.8044907407407407e+00
229 406       0.0000000000000000e+00
229 407       0.0000000000000000e+00
229 408       0.0000000000000000e+00
229 409       0.0000000000000000e+00
229 410       0.0000000000000000e+00
229 411       0.0000000000000000e+00
229 415       0.0000000000000000e+00
229 416       0.0000000000000000e+00
229 417       0.0000000000000000e+00
229 418       0.0000000000000000e+00
229 419       0.0000000000000000e+00
229 420       0.0000000000000000e+00
230 230      -6.5014567901234602e+02
230 151       2.8044907407407411e+00
230 152       2.0317052469135810e+01
230 153       1.6826944444444447e+01
230 154      -1.9984014443252818e-15
230 155       8.0520339506172860e+01
230 156       6.7307777777777787e+01
230 157      -2.8044907407407411e+00
230 158       2.0317052469135810e+01
230 159       1.6826944444444454e+01
230 166       1.6653345369377348e-15
230 167      -1.2962901234567903e+01
230 168       7.1054273576010019e-15
230 169      -4.4408920985006262e-16
230 170      -5.4843086419753121e+01
230 171      -2.1316282072803006e-14
230 172       1.7763568394002505e-15
230 173      -1.2962901234567910e+01
230 174      -9.7699626167013776e-15
230 181      -2.8044907407407416e+00
230 182       2.0317052469135795e+01
230 183      -1.6826944444444443e+01
230 184      -7.7715611723760958e-16
230 185       8.0520339506172860e+01
230 186      -6.7307777777777801e+01
230 187       2.8044907407407416e+00
230 188       2.0317052469135820e+01
230 189      -1.6826944444444457e+01
230 211       1.1217962962962964e+01
230 212       5.4344876543209921e+01
230 213       0.0000000000000000e+00
230 214      -7.9936057773011271e-15
230 215       2.1438802469135811e+02
230 216       2.6645352591003757e-15
230 217      -1.1217962962962966e+01
230 218       5.4344876543209892e+01
230 219       0.0000000000000000e+00
230 226       6.8833827526759706e-15
230 227      -1.5954493827160491e+02
230 228       1.0658141036401503e-14
230 229      -1.7763568394002505e-15
230 231       5.6843418860808015e-14
230 232       6.8833827526759706e-15
230 233      -1.5954493827160499e+02
230 234       3.5527136788005009e-15
230 241      -1.1217962962962964e+01
230 242       5.4344876543209850e+01
230 243       8.8817841970012523e-16
230 244      -2.8865798640254070e-15
230 245       2.1438802469135814e+02
230 246      -3.5527136788005009e-15
230 247       1.1217962962962966e+01
230 248       5.4344876543209935e+01
230 249      -3.9968028886505635e-15
230 271       2.8044907407407407e+00
230 272       2.0317052469135813e+01
230 273      -1.6826944444444447e+01
230 274      -1.7763568394002505e-15
230 275       8.0520339506172860e+01
230 276      -6.7307777777777801e+01
230 277      -2.8044907407407407e+00
230 278       2.0317052469135810e+01
230 279      -1.6826944444444450e+01
230 286       2.8865798640254070e-15
230 287      -1.2962901234567898e+01
230 288      -1.1990408665951691e-14
230 289      -4.4408920985006262e-16
230 290      -5.4843086419753092e+01
230 291      -1.5987211554602254e-14
230 292       8.8817841970012523e-16
230 293      -1.2962901234567909e+01
230 294       3.5527136788005009e-15
230 301      -2.8044907407407411e+00
230 302       2.0317052469135788e+01
230 303       1.6826944444444440e+01
230 304      -2.4424906541753444e-15
230 305       8.0520339506172860e+01
230 306       6.7307777777777801e+01
230 307       2.8044907407407411e+00
230 308       2.0317052469135813e+01
230 309       1.6826944444444457e+01
230 406       0.0000000000000000e+00
230 407       0.0000000000000000e+00
230 408       0.0000000000000000e+00
230 409       0.0000000000000000e+00
230 410       0.0000000000000000e+00
230 411       0.0000000000000000e+00
230 415       0.0000000000000000e+00
230 416       0.0000000000000000e+00
230 417       0.0000000000000000e+00
230 418       0.0000000000000000e+00
230 419       0.0000000000000000e+00
230 420       0.0000000000000000e+00
231 231      -6.5014567901234602e+02
231 151       2.8044907407407402e+00
231 152       1.6826944444444443e+01
231 153       2.0317052469135799e+01
231 154      -2.5535129566378600e-15
231 155       6.7307777777777801e+01
231 156       8.0520339506172860e+01
231 157      -2.8044907407407407e+00
231 158       1.6826944444444454e+01
231 159       2.0317052469135810e+01
231 166       1.1217962962962964e+01
231 167       1.1102230246251565e-14
231 168       5.4344876543209864e+01
231 169       8.8817841970012523e-16
231 170      -7.9936057773011271e-15
231 171       2.1438802469135805e+02
231 172      -1.1217962962962964e+01
231 173      -1.1546319456101628e-14
231 174       5.4344876543209892e+01
231 181       2.8044907407407411e+00
231 182      -1.6826944444444443e+01
231 183       2.0317052469135795e+01
231 184      -4.4408920985006262e-16
231 185      -6.7307777777777801e+01
231 186       8.0520339506172860e+01
231 187      -2.8044907407407407e+00
231 188      -1.6826944444444454e+01
231 189       2.0317052469135810e+01
231 211       0.0000000000000000e+00
231 212      -1.7763568394002505e-15
231 213      -1.2962901234567889e+01
231 214      -4.4408920985006262e-16
231 215      -1.2434497875801753e-14
231 216      -5.4843086419753064e+01
231 217       2.2204460492503131e-16
231 218      -3.1086244689504383e-15
231 219      -1.2962901234567909e+01
231 226      -8.8817841970012523e-16
231 227       1.0658141036401503e-14
231 228      -1.5954493827160491e+02
231 229       4.4408920985006262e-15
231 230       5.6843418860808015e-14
231 232       8.8817841970012523e-16
231 233       1.4210854715202004e-14
231 234      -1.5954493827160502e+02
231 241       4.4408920985006262e-16
231 242      -4.4408920985006262e-16
231 243      -1.2962901234567905e+01
231 244       8.8817841970012523e-16
231 245      -5.3290705182007514e-15
231 246      -5.4843086419753078e+01
231 247      -2.2204460492503131e-16
231 248      -2.2204460492503131e-15
231 249      -1.2962901234567898e+01
231 271      -2.8044907407407407e+00
231 272      -1.6826944444444447e+01
231 273       2.0317052469135803e+01
231 274       1.5543122344752192e-15
231 275      -6.7307777777777787e+01
231 276       8.0520339506172860e+01
231 277       2.8044907407407411e+00
231 278      -1.6826944444444450e+01
231 279       2.0317052469135806e+01
231 286      -1.1217962962962964e+01
231 287      -1.5987211554602254e-14
231 288       5.4344876543209878e+01
231 289      -5.7731597280508140e-15
231 290      -2.5757174171303632e-14
231 291       2.1438802469135808e+02
231 292       1.1217962962962964e+01
231 293       8.8817841970012523e-15
231 294       5.4344876543209899e+01
231 301      -2.8044907407407411e+00
231 302       1.6826944444444440e+01
231 303       2.0317052469135795e+01
231 304      -1.8873791418627661e-15
231 305       6.7307777777777801e+01
231 306       8.0520339506172860e+01
231 307       2.8044907407407411e+00
231 308       1.6826944444444457e+01
231 309       2.0317052469135813e+01
231 406       0.0000000000000000e+00
231 407       0.0000000000000000e+00
231 408       0.0000000000000000e+00
231 409       0.0000000000000000e+00
231 410       0.0000000000000000e+00
231 411       0.0000000000000000e+00
231 415       0.0000000000000000e+00
231 416       0.0000000000000000e+00
231 417       0.0000000000000000e+00
231 418       0.0000000000000000e+00
231 419       0.0000000000000000e+00
231 420       0.0000000000000000e+00
232 232      -3.0114238683127570e+02
232 154       9.4106995884773728e+00
232 155       2.8044907407407411e+00
232 156       2.8044907407407402e+00
232 157       3.5025267489711950e+01
232 158      -1.2212453270876722e-15
232 159      -1.9984014443252818e-15
232 160       9.4106995884773692e+00
232 161      -2.8044907407407420e+00
232 162      -2.8044907407407411e+00
232 169       1.0719465020576134e+01
232 170       1.6653345369377348e-15
232 171       1.1217962962962964e+01
232 172       3.2407736625514403e+01
232 173       1.3322676295501878e-15
232 174      -2.2204460492503131e-16
232 175       1.0719465020576127e+01
232 176      -2.2204460492503131e-16
232 177      -1.1217962962962964e+01
232 184       9.4106995884773674e+00
232 185      -2.8044907407407411e+00
232 186       2.8044907407407411e+00
232 187       3.5025267489711943e+01
232 188       2.2204460492503131e-16
232 189      -1.1102230246251565e-16
232 190       9.4106995884773657e+00
232 191       2.8044907407407411e+00
232 192      -2.8044907407407411e+00
232 214       1.0719465020576143e+01
232 215       1.1217962962962964e+01
232 216       3.3306690738754696e-16
232 217       3.2407736625514424e+01
232 218      -4.8849813083506888e-15
232 219       8.8817841970012523e-16
232 220       1.0719465020576138e+01
232 221      -1.1217962962962968e+01
232 222       0.0000000000000000e+00
232 229      -6.4815473251028862e+01
232 230       6.8833827526759706e-15
232 231       8.8817841970012523e-16
232 233       1.7763568394002505e-15
232 234       1.7763568394002505e-15
232 235      -6.4815473251028806e+01
232 236      -1.7763568394002505e-15
232 237       8.8817841970012523e-16
232 244       1.0719465020576127e+01
232 245      -1.1217962962962964e+01
232 246      -3.3306690738754696e-16
232 247       3.2407736625514410e+01
232 248       4.4408920985006262e-16
232 249       2.2204460492503131e-15
232 250       1.0719465020576125e+01
232 251       1.1217962962962966e+01
232 252       4.4408920985006262e-16
232 274       9.4106995884773728e+00
232 275       2.8044907407407411e+00
232 276      -2.8044907407407398e+00
232 277       3.5025267489711943e+01
232 278      -6.6613381477509392e-16
232 279       1.3322676295501878e-15
232 280       9.4106995884773692e+00
232 281      -2.8044907407407411e+00
232 282       2.8044907407407411e+00
232 289       1.0719465020576134e+01
232 290       1.9984014443252818e-15
232 291      -1.1217962962962964e+01
232 292       3.2407736625514403e+01
232 293       1.7763568394002505e-15
232 294      -1.1102230246251565e-15
232 295       1.0719465020576127e+01
232 296      -5.5511151231257827e-16
232 297       1.1217962962962964e+01
232 304       9.4106995884773657e+00
232 305      -2.8044907407407407e+00
232 306      -2.8044907407407407e+00
232 307       3.5025267489711936e+01
232 308      -1.8873791418627661e-15
232 309      -1.4432899320127035e-15
232 310       9.4106995884773639e+00
232 311       2.8044907407407407e+00
232 312       2.8044907407407407e+00
233 233      -6.5014567901234591e+02
233 154       2.8044907407407407e+00
233 155       2.0317052469135824e+01
233 156       1.6826944444444457e+01
233 157      -1.7763568394002505e-15
233 158       8.0520339506172860e+01
233 159       6.7307777777777787e+01
233 160      -2.8044907407407416e+00
233 161       2.0317052469135803e+01
233 162       1.6826944444444443e+01
233 169       1.9984014443252818e-15
233 170      -1.2962901234567912e+01
233 171       1.2434497875801753e-14
233 172       8.8817841970012523e-16
233 173      -5.4843086419753106e+01
233 174       1.0658141036401503e-14
233 175       0.0000000000000000e+00
233 176      -1.2962901234567903e+01
233 177       7.1054273576010019e-15
233 184      -2.8044907407407411e+00
233 185       2.0317052469135806e+01
233 186      -1.6826944444444450e+01
233 187      -1.1102230246251565e-16
233 188       8.0520339506172860e+01
233 189      -6.7307777777777787e+01
233 190       2.8044907407407411e+00
233 191       2.0317052469135792e+01
233 192      -1.6826944444444443e+01
233 214       1.1217962962962964e+01
233 215       5.4344876543209949e+01
233 216      -1.3322676295501878e-15
233 217      -5.9952043329758453e-15
233 218       2.1438802469135814e+02
233 219       2.6645352591003757e-15
233 220      -1.1217962962962968e+01
233 221       5.4344876543209899e+01
233 222       7.1054273576010019e-15
233 229       7.3274719625260332e-15
233 230      -1.5954493827160499e+02
233 231       1.4210854715202004e-14
233 232       1.7763568394002505e-15
233 234       0.0000000000000000e+00
233 235       0.0000000000000000e+00
233 236      -1.5954493827160488e+02
233 237       0.0000000000000000e+00
233 244      -1.1217962962962964e+01
233 245       5.4344876543209892e+01
233 246      -5.3290705182007514e-15
233 247       2.2204460492503131e-16
233 248       2.1438802469135811e+02
233 249       0.0000000000000000e+00
233 250       1.1217962962962964e+01
233 251       5.4344876543209850e+01
233 252       7.9936057773011271e-15
233 274       2.8044907407407411e+00
233 275       2.0317052469135824e+01
233 276      -1.6826944444444454e+01
233 277      -1.5543122344752192e-15
233 278       8.0520339506172860e+01
233 279      -6.7307777777777801e+01
233 280      -2.8044907407407411e+00
233 281       2.0317052469135803e+01
233 282      -1.6826944444444447e+01
233 289       2.7755575615628914e-15
233 290      -1.2962901234567909e+01
233 291      -1.3322676295501878e-14
233 292       1.3322676295501878e-15
233 293      -5.4843086419753092e+01
233 294       8.8817841970012523e-16
233 295      -6.6613381477509392e-16
233 296      -1.2962901234567898e+01
233 297      -1.0214051826551440e-14
233 304      -2.8044907407407411e+00
233 305       2.0317052469135803e+01
233 306       1.6826944444444450e+01
233 307      -1.8873791418627661e-15
233 308       8.0520339506172832e+01
233 309       6.7307777777777801e+01
233 310       2.8044907407407402e+00
233 311       2.0317052469135788e+01
233 312       1.6826944444444440e+01
234 234      -6.5014567901234591e+02
234 154       2.8044907407407402e+00
234 155       1.6826944444444461e+01
234 156       2.0317052469135810e+01
234 157      -2.4424906541753444e-15
234 158       6.7307777777777787e+01
234 159       8.0520339506172860e+01
234 160      -2.8044907407407411e+00
234 161       1.6826944444444443e+01
234 162       2.0317052469135799e+01
234 169       1.1217962962962963e+01
234 170       7.1054273576010019e-15
234 171       5.4344876543209892e+01
234 172       1.3322676295501878e-15
234 173       8.8817841970012523e-16
234 174       2.1438802469135805e+02
234 175      -1.1217962962962963e+01
234 176       8.8817841970012523e-15
234 177       5.4344876543209864e+01
234 184       2.8044907407407411e+00
234 185      -1.6826944444444450e+01
234 186       2.0317052469135806e+01
234 187      -2.2204460492503131e-16
234 188      -6.7307777777777787e+01
234 189       8.0520339506172832e+01
234 190      -2.8044907407407407e+00
234 191      -1.6826944444444443e+01
234 192       2.0317052469135799e+01
234 214       4.4408920985006262e-16
234 215      -3.5527136788005009e-15
234 216      -1.2962901234567893e+01
234 217       8.8817841970012523e-16
234 218       7.9936057773011271e-15
234 219      -5.4843086419753064e+01
234 220      -1.1102230246251565e-16
234 221       5.7731597280508140e-15
234 222      -1.2962901234567887e+01
234 229       1.7763568394002505e-15
234 230       3.5527136788005009e-15
234 231      -1.5954493827160502e+02
234 232       1.7763568394002505e-15
234 233       0.0000000000000000e+00
234 235       0.0000000000000000e+00
234 236       3.5527136788005009e-15
234 237      -1.5954493827160485e+02
234 244       1.1102230246251565e-16
234 245      -4.4408920985006262e-15
234 246      -1.2962901234567912e+01
234 247       2.2204460492503131e-15
234 248       6.2172489379008766e-15
234 249      -5.4843086419753071e+01
234 250       3.3306690738754696e-16
234 251       5.3290705182007514e-15
234 252      -1.2962901234567898e+01
234 274      -2.8044907407407407e+00
234 275      -1.6826944444444454e+01
234 276       2.0317052469135810e+01
234 277       2.2204460492503131e-15
234 278      -6.7307777777777787e+01
234 279       8.0520339506172860e+01
234 280       2.8044907407407411e+00
234 281      -1.6826944444444447e+01
234 282       2.0317052469135799e+01
234 289      -1.1217962962962964e+01
234 290      -1.4210854715202004e-14
234 291       5.4344876543209899e+01
234 292      -5.1070259132757201e-15
234 293      -5.3290705182007514e-15
234 294       2.1438802469135808e+02
234 295       1.1217962962962961e+01
234 296      -7.1054273576010019e-15
234 297       5.4344876543209878e+01
234 304      -2.8044907407407411e+00
234 305       1.6826944444444450e+01
234 306       2.0317052469135810e+01
234 307      -1.6653345369377348e-15
234 308       6.7307777777777773e+01
234 309       8.0520339506172860e+01
234 310       2.8044907407407402e+00
234 311       1.6826944444444440e+01
234 312       2.0317052469135799e+01
235 235      -3.0114238683127564e+02
235 157       9.4106995884773674e+00
235 158       2.8044907407407407e+00
235 159       2.8044907407407402e+00
235 160       3.5025267489711936e+01
235 161      -6.6613381477509392e-16
235 162      -2.4424906541753444e-15
235 163       9.4106995884773674e+00
235 164      -2.8044907407407416e+00
235 165      -2.8044907407407411e+00
235 172       1.0719465020576127e+01
235 173      -2.2204460492503131e-16
235 174       1.1217962962962964e+01
235 175       3.2407736625514389e+01
235 176       4.4408920985006262e-15
235 177      -2.2204460492503131e-16
235 178       1.0719465020576129e+01
235 179      -8.8817841970012523e-16
235 180      -1.1217962962962964e+01
235 187       9.4106995884773692e+00
235 188      -2.8044907407407416e+00
235 189       2.8044907407407411e+00
235 190       3.5025267489711936e+01
235 191       5.5511151231257827e-16
235 192       1.1102230246251565e-16
235 193       9.4106995884773621e+00
235 194       2.8044907407407402e+00
235 195      -2.8044907407407411e+00
235 217       1.0719465020576123e+01
235 218       1.1217962962962961e+01
235 219      -2.2204460492503131e-16
235 220       3.2407736625514410e+01
235 221      -3.5527136788005009e-15
235 222       1.3322676295501878e-15
235 223       1.0719465020576141e+01
235 224      -1.1217962962962968e+01
235 225       1.1102230246251565e-16
235 232      -6.4815473251028806e+01
235 233       0.0000000000000000e+00
235 234       0.0000000000000000e+00
235 236       1.4210854715202004e-14
235 237       3.5527136788005009e-15
235 238      -6.4815473251028806e+01
235 239      -3.5527136788005009e-15
235 240       6.6613381477509392e-16
235 247       1.0719465020576138e+01
235 248      -1.1217962962962966e+01
235 249       5.5511151231257827e-16
235 250       3.2407736625514396e+01
235 251       1.5543122344752192e-15
235 252       0.0000000000000000e+00
235 253       1.0719465020576123e+01
235 254       1.1217962962962966e+01
235 255       4.4408920985006262e-16
235 277       9.4106995884773657e+00
235 278       2.8044907407407402e+00
235 279      -2.8044907407407398e+00
235 280       3.5025267489711943e+01
235 281       0.0000000000000000e+00
235 282       1.2212453270876722e-15
235 283       9.4106995884773692e+00
235 284      -2.8044907407407407e+00
235 285       2.8044907407407411e+00
235 292       1.0719465020576131e+01
235 293       7.7715611723760958e-16
235 294      -1.1217962962962964e+01
235 295       3.2407736625514403e+01
235 296       5.3290705182007514e-15
235 297      -2.4424906541753444e-15
235 298       1.0719465020576131e+01
235 299      -1.2212453270876722e-15
235 300       1.1217962962962964e+01
235 307       9.4106995884773674e+00
235 308      -2.8044907407407416e+00
235 309      -2.8044907407407407e+00
235 310       3.5025267489711936e+01
235 311      -1.6653345369377348e-15
235 312      -1.8873791418627661e-15
235 313       9.4106995884773621e+00
235 314       2.8044907407407402e+00
235 315       2.8044907407407402e+00
236 236      -6.5014567901234579e+02
236 157       2.8044907407407402e+00
236 158       2.0317052469135792e+01
236 159       1.6826944444444443e+01
236 160      -9.9920072216264089e-16
236 161       8.0520339506172846e+01
236 162       6.7307777777777773e+01
236 163      -2.8044907407407416e+00
236 164       2.0317052469135810e+01
236 165       1.6826944444444443e+01
236 172      -3.3306690738754696e-16
236 173      -1.2962901234567902e+01
236 174      -4.4408920985006262e-15
236 175       4.4408920985006262e-15
236 176      -5.4843086419753099e+01
236 177       3.5527136788005009e-15
236 178      -7.7715611723760958e-16
236 179      -1.2962901234567902e+01
236 180       8.8817841970012523e-15
236 187      -2.8044907407407416e+00
236 188       2.0317052469135806e+01
236 189      -1.6826944444444447e+01
236 190       5.5511151231257827e-16
236 191       8.0520339506172832e+01
236 192      -6.7307777777777773e+01
236 193       2.8044907407407402e+00
236 194       2.0317052469135792e+01
236 195      -1.6826944444444443e+01
236 217       1.1217962962962964e+01
236 218       5.4344876543209864e+01
236 219       5.7731597280508140e-15
236 220      -5.1070259132757201e-15
236 221       2.1438802469135805e+02
236 222       1.9539925233402755e-14
236 223      -1.1217962962962968e+01
236 224       5.4344876543209914e+01
236 225       4.4408920985006262e-15
236 232      -1.7763568394002505e-15
236 233      -1.5954493827160488e+02
236 234       3.5527136788005009e-15
236 235       1.4210854715202004e-14
236 237      -3.5527136788005009e-14
236 238      -3.5527136788005009e-15
236 239      -1.5954493827160491e+02
236 240      -3.5527136788005009e-15
236 247      -1.1217962962962964e+01
236 248       5.4344876543209892e+01
236 249       7.9936057773011271e-15
236 250       1.5543122344752192e-15
236 251       2.1438802469135803e+02
236 252       6.2172489379008766e-15
236 253       1.1217962962962964e+01
236 254       5.4344876543209850e+01
236 255       1.3322676295501878e-15
236 277       2.8044907407407402e+00
236 278       2.0317052469135795e+01
236 279      -1.6826944444444443e+01
236 280      -2.2204460492503131e-16
236 281       8.0520339506172846e+01
236 282      -6.7307777777777787e+01
236 283      -2.8044907407407411e+00
236 284       2.0317052469135810e+01
236 285      -1.6826944444444450e+01
236 292       9.9920072216264089e-16
236 293      -1.2962901234567898e+01
236 294       3.9968028886505635e-15
236 295       4.8849813083506888e-15
236 296      -5.4843086419753071e+01
236 297       6.2172489379008766e-15
236 298      -1.2212453270876722e-15
236 299      -1.2962901234567898e+01
236 300      -1.1546319456101628e-14
236 307      -2.8044907407407411e+00
236 308       2.0317052469135795e+01
236 309       1.6826944444444443e+01
236 310      -9.9920072216264089e-16
236 311       8.0520339506172817e+01
236 312       6.7307777777777773e+01
236 313       2.8044907407407402e+00
236 314       2.0317052469135792e+01
236 315       1.6826944444444436e+01
237 237      -6.5014567901234568e+02
237 157       2.8044907407407402e+00
237 158       1.6826944444444440e+01
237 159       2.0317052469135799e+01
237 160      -2.6645352591003757e-15
237 161       6.7307777777777773e+01
237 162       8.0520339506172832e+01
237 163      -2.8044907407407411e+00
237 164       1.6826944444444443e+01
237 165       2.0317052469135803e+01
237 172       1.1217962962962964e+01
237 173      -5.3290705182007514e-15
237 174       5.4344876543209871e+01
237 175      -4.4408920985006262e-16
237 176       1.5099033134902129e-14
237 177       2.1438802469135800e+02
237 178      -1.1217962962962964e+01
237 179       1.7763568394002505e-14
237 180       5.4344876543209864e+01
237 187       2.8044907407407411e+00
237 188      -1.6826944444444447e+01
237 189       2.0317052469135799e+01
237 190      -8.8817841970012523e-16
237 191      -6.7307777777777773e+01
237 192       8.0520339506172832e+01
237 193      -2.8044907407407407e+00
237 194      -1.6826944444444443e+01
237 195       2.0317052469135799e+01
237 217      -2.2204460492503131e-16
237 218       7.1054273576010019e-15
237 219      -1.2962901234567896e+01
237 220       8.8817841970012523e-16
237 221       1.1546319456101628e-14
237 222      -5.4843086419753050e+01
237 223       1.1102230246251565e-16
237 224      -4.4408920985006262e-16
237 225      -1.2962901234567884e+01
237 232       8.8817841970012523e-16
237 233       0.0000000000000000e+00
237 234      -1.5954493827160485e+02
237 235       3.5527136788005009e-15
237 236      -3.5527136788005009e-14
237 238       0.0000000000000000e+00
237 239      -7.1054273576010019e-15
237 240      -1.5954493827160491e+02
237 247       6.6613381477509392e-16
237 248       7.1054273576010019e-15
237 249      -1.2962901234567889e+01
237 250       8.8817841970012523e-16
237 251       1.1546319456101628e-14
237 252      -5.4843086419753064e+01
237 253       2.2204460492503131e-16
237 254       2.2204460492503131e-15
237 255      -1.2962901234567905e+01
237 277      -2.8044907407407402e+00
237 278      -1.6826944444444447e+01
237 279       2.0317052469135799e+01
237 280       1.5543122344752192e-15
237 281      -6.7307777777777773e+01
237 282       8.0520339506172832e+01
237 283       2.8044907407407411e+00
237 284      -1.6826944444444447e+01
237 285       2.0317052469135803e+01
237 292      -1.1217962962962964e+01
237 293       3.5527136788005009e-15
237 294       5.4344876543209878e+01
237 295      -3.9968028886505635e-15
237 296      -6.2172489379008766e-15
237 297       2.1438802469135800e+02
237 298       1.1217962962962964e+01
237 299      -1.4654943925052066e-14
237 300       5.4344876543209871e+01
237 307      -2.8044907407407420e+00
237 308       1.6826944444444443e+01
237 309       2.0317052469135799e+01
237 310      -1.4432899320127035e-15
237 311       6.7307777777777773e+01
237 312       8.0520339506172832e+01
237 313       2.8044907407407402e+00
237 314       1.6826944444444440e+01
237 315       2.0317052469135799e+01
238 238      -1.5057119341563785e+02
238 160       9.4106995884773621e+00
238 161       2.8044907407407402e+00
238 162       2.8044907407407402e+00
238 163       1.7512633744855965e+01
238 164       5.6087962962962901e-01
238 165       5.6087962962962867e-01
238 175       1.0719465020576129e+01
238 176      -8.8817841970012523e-16
238 177       1.1217962962962964e+01
238 178       1.6203868312757201e+01
238 179       3.1086244689504383e-15
238 180       2.2435185185185187e+00
238 190       9.4106995884773674e+00
238 191      -2.8044907407407411e+00
238 192       2.8044907407407411e+00
238 193       1.7512633744855968e+01
238 194      -5.6087962962962967e-01
238 195       5.6087962962962978e-01
238 220       1.0719465020576120e+01
238 221       1.1217962962962963e+01
238 222      -1.1102230246251565e-16
238 223       1.6203868312757209e+01
238 224       2.2435185185185160e+00
238 225       4.4408920985006262e-16
238 235      -6.4815473251028806e+01
238 236      -3.5527136788005009e-15
238 237       0.0000000000000000e+00
238 239       9.7699626167013776e-15
238 240       3.5527136788005009e-15
238 250       1.0719465020576141e+01
238 251      -1.1217962962962966e+01
238 252       1.1102230246251565e-16
238 253       1.6203868312757198e+01
238 254      -2.2435185185185187e+00
238 255       0.0000000000000000e+00
238 280       9.4106995884773639e+00
238 281       2.8044907407407402e+00
238 282      -2.8044907407407398e+00
238 283       1.7512633744855968e+01
238 284       5.6087962962962945e-01
238 285      -5.6087962962962901e-01
238 295       1.0719465020576131e+01
238 296       3.3306690738754696e-16
238 297      -1.1217962962962964e+01
238 298       1.6203868312757209e+01
238 299       2.2204460492503131e-15
238 300      -2.2435185185185196e+00
238 310       9.4106995884773674e+00
238 311      -2.8044907407407416e+00
238 312      -2.8044907407407407e+00
238 313       1.7512633744855968e+01
238 314      -5.6087962962963089e-01
238 315      -5.6087962962963012e-01
239 239      -3.2507283950617284e+02
239 160       2.8044907407407402e+00
239 161       2.0317052469135792e+01
239 162       1.6826944444444440e+01
239 163      -5.6087962962963034e-01
239 164       4.0260169753086423e+01
239 165       3.3653888888888893e+01
239 175      -1.1102230246251565e-15
239 176      -1.2962901234567905e+01
239 177      -1.0658141036401503e-14
239 178       3.1086244689504383e-15
239 179      -2.7421543209876546e+01
239 180       0.0000000000000000e+00
239 190      -2.8044907407407411e+00
239 191       2.0317052469135810e+01
239 192      -1.6826944444444447e+01
239 193       5.6087962962962989e-01
239 194       4.0260169753086430e+01
239 195      -3.3653888888888893e+01
239 220       1.1217962962962963e+01
239 221       5.4344876543209843e+01
239 222       8.8817841970012523e-16
239 223      -2.2435185185185222e+00
239 224       1.0719401234567904e+02
239 225       5.3290705182007514e-15
239 235      -3.5527136788005009e-15
239 236      -1.5954493827160491e+02
239 237      -7.1054273576010019e-15
239 238       9.7699626167013776e-15
239 240       0.0000000000000000e+00
239 250      -1.1217962962962968e+01
239 251       5.4344876543209907e+01
239 252      -8.8817841970012523e-16
239 253       2.2435185185185187e+00
239 254       1.0719401234567901e+02
239 255       0.0000000000000000e+00
239 280       2.8044907407407402e+00
239 281       2.0317052469135792e+01
239 282      -1.6826944444444443e+01
239 283      -5.6087962962963001e-01
239 284       4.0260169753086430e+01
239 285      -3.3653888888888893e+01
239 295       4.4408920985006262e-16
239 296      -1.2962901234567900e+01
239 297       1.4210854715202004e-14
239 298       2.2204460492503131e-15
239 299      -2.7421543209876539e+01
239 300       1.3322676295501878e-14
239 310      -2.8044907407407411e+00
239 311       2.0317052469135806e+01
239 312       1.6826944444444443e+01
239 313       5.6087962962962867e-01
239 314       4.0260169753086416e+01
239 315       3.3653888888888893e+01
240 240      -3.2507283950617290e+02
240 160       2.8044907407407402e+00
240 161       1.6826944444444436e+01
240 162       2.0317052469135799e+01
240 163      -5.6087962962963078e-01
240 164       3.3653888888888886e+01
240 165       4.0260169753086409e+01
240 175       1.1217962962962964e+01
240 176      -7.9936057773011271e-15
240 177       5.4344876543209864e+01
240 178      -2.2435185185185178e+00
240 179       1.7763568394002505e-14
240 180       1.0719401234567900e+02
240 190       2.8044907407407411e+00
240 191      -1.6826944444444447e+01
240 192       2.0317052469135803e+01
240 193      -5.6087962962962978e-01
240 194      -3.3653888888888893e+01
240 195       4.0260169753086423e+01
240 220       0.0000000000000000e+00
240 221      -4.4408920985006262e-16
240 222      -1.2962901234567905e+01
240 223       0.0000000000000000e+00
240 224      -5.3290705182007514e-15
240 225      -2.7421543209876525e+01
240 235       6.6613381477509392e-16
240 236      -3.5527136788005009e-15
240 237      -1.5954493827160491e+02
240 238       3.5527136788005009e-15
240 239       0.0000000000000000e+00
240 250       6.6613381477509392e-16
240 251       3.1086244689504383e-15
240 252      -1.2962901234567887e+01
240 253       4.4408920985006262e-16
240 254       8.8817841970012523e-16
240 255      -2.7421543209876543e+01
240 280      -2.8044907407407407e+00
240 281      -1.6826944444444443e+01
240 282       2.0317052469135799e+01
240 283       5.6087962962963056e-01
240 284      -3.3653888888888886e+01
240 285       4.0260169753086423e+01
240 295      -1.1217962962962966e+01
240 296       6.2172489379008766e-15
240 297       5.4344876543209871e+01
240 298       2.2435185185185178e+00
240 299      -1.7763568394002505e-15
240 300       1.0719401234567903e+02
240 310      -2.8044907407407411e+00
240 311       1.6826944444444447e+01
240 312       2.0317052469135799e+01
240 313       5.6087962962962912e-01
240 314       3.3653888888888893e+01
240 315       4.0260169753086423e+01
241 241      -7.5285596707818911e+01
241 166       1.7512633744855972e+01
241 167      -5.6087962962963012e-01
241 168      -5.6087962962962978e-01
241 169       9.4106995884773639e+00
241 170      -2.8044907407407416e+00
241 171      -2.8044907407407411e+00
241 181       8.1019341563785936e+00
241 182       2.8044907407407402e+00
241 183      -1.1217592592592593e+00
241 184       5.3597325102880653e+00
241 185       5.6087962962963023e-01
241 186      -5.6089814814814831e+00
241 226       1.6203868312757201e+01
241 227      -2.2435185185185196e+00
241 228       0.0000000000000000e+00
241 229       1.0719465020576123e+01
241 230      -1.1217962962962964e+01
241 231       4.4408920985006262e-16
241 242       1.1217962962962964e+01
241 243       0.0000000000000000e+00
241 244      -3.2407736625514389e+01
241 245       2.2435185185185214e+00
241 246       1.7763568394002505e-15
241 286       1.7512633744855972e+01
241 287      -5.6087962962962878e-01
241 288       5.6087962962962934e-01
241 289       9.4106995884773639e+00
241 290      -2.8044907407407407e+00
241 291       2.8044907407407407e+00
241 301       8.1019341563785918e+00
241 302       2.8044907407407393e+00
241 303       1.1217592592592580e+00
241 304       5.3597325102880635e+00
241 305       5.6087962962962967e-01
241 306       5.6089814814814813e+00
241 382      -5.5555555555555566e-02
241 383       0.0000000000000000e+00
241 384       0.0000000000000000e+00
241 391      -5.5555555555555462e-02
241 392       0.0000000000000000e+00
241 393       0.0000000000000000e+00
241 409       0.0000000000000000e+00
241 410       0.0000000000000000e+00
241 411       0.0000000000000000e+00
241 418       0.0000000000000000e+00
241 419       0.0000000000000000e+00
241 420       0.0000000000000000e+00
242 242      -1.6253641975308642e+02
242 166       5.6087962962962934e-01
242 167       4.0260169753086416e+01
242 168       3.3653888888888893e+01
242 169      -2.8044907407407411e+00
242 170       2.0317052469135795e+01
242 171       1.6826944444444443e+01
242 181       2.8044907407407393e+00
242 182      -1.3710771604938277e+01
242 183       6.7305555555555499e+00
242 184      -5.6087962962962901e-01
242 185      -6.4814506172839472e+00
242 186       3.3652777777777705e+00
242 226       2.2435185185185178e+00
242 227       1.0719401234567903e+02
242 228      -2.6645352591003757e-15
242 229      -1.1217962962962966e+01
242 230       5.4344876543209850e+01
242 231      -4.4408920985006262e-16
242 241       1.1217962962962964e+01
242 243       0.0000000000000000e+00
242 244      -2.2435185185185160e+00
242 245      -7.9772469135802424e+01
242 246       1.0658141036401503e-14
242 286       5.6087962962963034e-01
242 287       4.0260169753086416e+01
242 288      -3.3653888888888886e+01
242 289      -2.8044907407407411e+00
242 290       2.0317052469135795e+01
242 291      -1.6826944444444440e+01
242 301       2.8044907407407402e+00
242 302      -1.3710771604938280e+01
242 303      -6.7305555555555578e+00
242 304      -5.6087962962962934e-01
242 305      -6.4814506172839490e+00
242 306      -3.3652777777777758e+00
242 382       0.0000000000000000e+00
242 383       0.0000000000000000e+00
242 384       5.5555555555555566e-02
242 391       0.0000000000000000e+00
242 392       0.0000000000000000e+00
242 393       5.5555555555555462e-02
242 409       0.0000000000000000e+00
242 410       0.0000000000000000e+00
242 411       0.0000000000000000e+00
242 418       0.0000000000000000e+00
242 419       0.0000000000000000e+00
242 420       0.0000000000000000e+00
243 243      -1.6253641975308636e+02
243 166       5.6087962962962923e-01
243 167       3.3653888888888886e+01
243 168       4.0260169753086416e+01
243 169      -2.8044907407407407e+00
243 170       1.6826944444444440e+01
243 171       2.0317052469135795e+01
243 181       1.1217592592592589e+00
243 182      -6.7305555555555578e+00
243 183       5.3597006172839485e+01
243 184      -5.6089814814814822e+00
243 185      -3.3652777777777843e+00
243 186       2.7172438271604932e+01
243 226       0.0000000000000000e+00
243 227      -2.6645352591003757e-15
243 228      -2.7421543209876521e+01
243 229       3.3306690738754696e-16
243 230       8.8817841970012523e-16
243 231      -1.2962901234567905e+01
243 241       0.0000000000000000e+00
243 242       0.0000000000000000e+00
243 244       6.6613381477509392e-16
243 245       7.1054273576010019e-15
243 246      -7.9772469135802453e+01
243 286      -5.6087962962962978e-01
243 287      -3.3653888888888879e+01
243 288       4.0260169753086416e+01
243 289       2.8044907407407411e+00
243 290      -1.6826944444444440e+01
243 291       2.0317052469135795e+01
243 301      -1.1217592592592596e+00
243 302       6.7305555555555481e+00
243 303       5.3597006172839485e+01
243 304       5.6089814814814805e+00
243 305       3.3652777777777776e+00
243 306       2.7172438271604932e+01
243 382       0.0000000000000000e+00
243 383       5.5555555555555566e-02
243 384       0.0000000000000000e+00
243 391       0.0000000000000000e+00
243 392       5.5555555555555462e-02
243 393       0.0000000000000000e+00
243 409       0.0000000000000000e+00
243 410       0.0000000000000000e+00
243 411       0.0000000000000000e+00
243 418       0.0000000000000000e+00
243 419       0.0000000000000000e+00
243 420       0.0000000000000000e+00
244 244      -1.5057119341563788e+02
244 166       9.4106995884773674e+00
244 167       2.8044907407407411e+00
244 168       2.8044907407407407e+00
244 169       3.5025267489711950e+01
244 170      -6.6613381477509392e-16
244 171      -8.8817841970012523e-16
244 172       9.4106995884773674e+00
244 173      -2.8044907407407411e+00
244 174      -2.8044907407407402e+00
244 181       5.3597325102880644e+00
244 182      -5.6087962962962901e-01
244 183       5.6089814814814822e+00
244 184       1.6203868312757201e+01
244 185      -4.4408920985006262e-16
244 186       4.4408920985006262e-16
244 187       5.3597325102880653e+00
244 188       5.6087962962963023e-01
244 189      -5.6089814814814822e+00
244 226       1.0719465020576138e+01
244 227       1.1217962962962968e+01
244 228       5.5511151231257827e-16
244 229       3.2407736625514410e+01
244 230      -2.8865798640254070e-15
244 231       8.8817841970012523e-16
244 232       1.0719465020576127e+01
244 233      -1.1217962962962964e+01
244 234       1.1102230246251565e-16
244 241      -3.2407736625514389e+01
244 242      -2.2435185185185160e+00
244 243       6.6613381477509392e-16
244 245      -5.3290705182007514e-15
244 246       8.8817841970012523e-16
244 247      -3.2407736625514438e+01
244 248       2.2435185185185205e+00
244 249       0.0000000000000000e+00
244 286       9.4106995884773674e+00
244 287       2.8044907407407411e+00
244 288      -2.8044907407407411e+00
244 289       3.5025267489711950e+01
244 290      -2.2204460492503131e-16
244 291      -8.8817841970012523e-16
244 292       9.4106995884773692e+00
244 293      -2.8044907407407402e+00
244 294       2.8044907407407407e+00
244 301       5.3597325102880653e+00
244 302      -5.6087962962962890e-01
244 303      -5.6089814814814813e+00
244 304       1.6203868312757205e+01
244 305      -1.3322676295501878e-15
244 306      -1.3322676295501878e-15
244 307       5.3597325102880671e+00
244 308       5.6087962962962978e-01
244 309       5.6089814814814813e+00
244 409       0.0000000000000000e+00
244 410       0.0000000000000000e+00
244 411       0.0000000000000000e+00
244 418       0.0000000000000000e+00
244 419       0.0000000000000000e+00
244 420       0.0000000000000000e+00
245 245      -3.2507283950617307e+02
245 166       2.8044907407407411e+00
245 167       2.0317052469135813e+01
245 168       1.6826944444444447e+01
245 169      -3.3306690738754696e-16
245 170       8.0520339506172888e+01
245 171       6.7307777777777801e+01
245 172      -2.8044907407407411e+00
245 173       2.0317052469135806e+01
245 174       1.6826944444444450e+01
245 181       5.6087962962963034e-01
245 182      -6.4814506172839490e+00
245 183       3.3652777777777816e+00
245 184      -4.4408920985006262e-16
245 185      -2.7421543209876560e+01
245 186       1.3461111111111110e+01
245 187      -5.6087962962962934e-01
245 188      -6.4814506172839588e+00
245 189       3.3652777777777731e+00
245 226       1.1217962962962968e+01
245 227       5.4344876543209921e+01
245 228      -1.7763568394002505e-15
245 229      -8.8817841970012523e-16
245 230       2.1438802469135814e+02
245 231      -5.3290705182007514e-15
245 232      -1.1217962962962964e+01
245 233       5.4344876543209892e+01
245 234      -4.4408920985006262e-15
245 241       2.2435185185185214e+00
245 242      -7.9772469135802424e+01
245 243       7.1054273576010019e-15
245 244      -5.3290705182007514e-15
245 246       1.4210854715202004e-14
245 247      -2.2435185185185169e+00
245 248      -7.9772469135802496e+01
245 249       7.1054273576010019e-15
245 286       2.8044907407407411e+00
245 287       2.0317052469135810e+01
245 288      -1.6826944444444447e+01
245 289       1.1102230246251565e-16
245 290       8.0520339506172874e+01
245 291      -6.7307777777777801e+01
245 292      -2.8044907407407402e+00
245 293       2.0317052469135810e+01
245 294      -1.6826944444444450e+01
245 301       5.6087962962963034e-01
245 302      -6.4814506172839472e+00
245 303      -3.3652777777777843e+00
245 304      -8.8817841970012523e-16
245 305      -2.7421543209876560e+01
245 306      -1.3461111111111126e+01
245 307      -5.6087962962962989e-01
245 308      -6.4814506172839605e+00
245 309      -3.3652777777777820e+00
245 409       0.0000000000000000e+00
245 410       0.0000000000000000e+00
245 411       0.0000000000000000e+00
245 418       0.0000000000000000e+00
245 419       0.0000000000000000e+00
245 420       0.0000000000000000e+00
246 246      -3.2507283950617295e+02
246 166       2.8044907407407411e+00
246 167       1.6826944444444447e+01
246 168       2.0317052469135799e+01
246 169      -8.8817841970012523e-16
246 170       6.7307777777777801e+01
246 171       8.0520339506172860e+01
246 172      -2.8044907407407407e+00
246 173       1.6826944444444450e+01
246 174       2.0317052469135806e+01
246 181       5.6089814814814822e+00
246 182      -3.3652777777777745e+00
246 183       2.7172438271604932e+01
246 184      -2.2204460492503131e-16
246 185      -1.3461111111111130e+01
246 186       1.0719401234567904e+02
246 187      -5.6089814814814813e+00
246 188      -3.3652777777777887e+00
246 189       2.7172438271604950e+01
246 226       4.4408920985006262e-16
246 227      -8.8817841970012523e-16
246 228      -1.2962901234567891e+01
246 229       8.8817841970012523e-16
246 230      -3.5527136788005009e-15
246 231      -5.4843086419753078e+01
246 232      -3.3306690738754696e-16
246 233      -5.3290705182007514e-15
246 234      -1.2962901234567912e+01
246 241       1.7763568394002505e-15
246 242       1.0658141036401503e-14
246 243      -7.9772469135802453e+01
246 244       8.8817841970012523e-16
246 245       1.4210854715202004e-14
246 247      -4.4408920985006262e-16
246 248       1.4210854715202004e-14
246 249      -7.9772469135802524e+01
246 286      -2.8044907407407411e+00
246 287      -1.6826944444444447e+01
246 288       2.0317052469135803e+01
246 289      -9.9920072216264089e-16
246 290      -6.7307777777777801e+01
246 291       8.0520339506172860e+01
246 292       2.8044907407407411e+00
246 293      -1.6826944444444454e+01
246 294       2.0317052469135810e+01
246 301      -5.6089814814814813e+00
246 302       3.3652777777777674e+00
246 303       2.7172438271604925e+01
246 304      -3.5527136788005009e-15
246 305       1.3461111111111100e+01
246 306       1.0719401234567906e+02
246 307       5.6089814814814831e+00
246 308       3.3652777777777820e+00
246 309       2.7172438271604953e+01
246 409       0.0000000000000000e+00
246 410       0.0000000000000000e+00
246 411       0.0000000000000000e+00
246 418       0.0000000000000000e+00
246 419       0.0000000000000000e+00
246 420       0.0000000000000000e+00
247 247      -1.5057119341563788e+02
247 169       9.4106995884773710e+00
247 170       2.8044907407407416e+00
247 171       2.8044907407407411e+00
247 172       3.5025267489711943e+01
247 173      -5.5511151231257827e-16
247 174      -7.7715611723760958e-16
247 175       9.4106995884773674e+00
247 176      -2.8044907407407411e+00
247 177      -2.8044907407407411e+00
247 184       5.3597325102880662e+00
247 185      -5.6087962962962934e-01
247 186       5.6089814814814831e+00
247 187       1.6203868312757201e+01
247 188       4.4408920985006262e-16
247 189       4.4408920985006262e-16
247 190       5.3597325102880653e+00
247 191       5.6087962962962945e-01
247 192      -5.6089814814814822e+00
247 229       1.0719465020576141e+01
247 230       1.1217962962962966e+01
247 231      -2.2204460492503131e-16
247 232       3.2407736625514410e+01
247 233       2.2204460492503131e-16
247 234       2.2204460492503131e-15
247 235       1.0719465020576138e+01
247 236      -1.1217962962962964e+01
247 237       6.6613381477509392e-16
247 244      -3.2407736625514438e+01
247 245      -2.2435185185185169e+00
247 246      -4.4408920985006262e-16
247 248       8.8817841970012523e-16
247 249       2.6645352591003757e-15
247 250      -3.2407736625514403e+01
247 251       2.2435185185185165e+00
247 252       4.4408920985006262e-16
247 289       9.4106995884773745e+00
247 290       2.8044907407407411e+00
247 291      -2.8044907407407407e+00
247 292       3.5025267489711943e+01
247 293       7.7715611723760958e-16
247 294      -8.8817841970012523e-16
247 295       9.4106995884773692e+00
247 296      -2.8044907407407407e+00
247 297       2.8044907407407407e+00
247 304       5.3597325102880671e+00
247 305      -5.6087962962962945e-01
247 306      -5.6089814814814822e+00
247 307       1.6203868312757201e+01
247 308       0.0000000000000000e+00
247 309      -2.2204460492503131e-15
247 310       5.3597325102880644e+00
247 311       5.6087962962962878e-01
247 312       5.6089814814814805e+00
248 248      -3.2507283950617301e+02
248 169       2.8044907407407411e+00
248 170       2.0317052469135817e+01
248 171       1.6826944444444457e+01
248 172      -4.4408920985006262e-16
248 173       8.0520339506172860e+01
248 174       6.7307777777777773e+01
248 175      -2.8044907407407411e+00
248 176       2.0317052469135803e+01
248 177       1.6826944444444443e+01
248 184       5.6087962962963023e-01
248 185      -6.4814506172839570e+00
248 186       3.3652777777777829e+00
248 187       4.4408920985006262e-16
248 188      -2.7421543209876553e+01
248 189       1.3461111111111109e+01
248 190      -5.6087962962962989e-01
248 191      -6.4814506172839526e+00
248 192       3.3652777777777825e+00
248 229       1.1217962962962966e+01
248 230       5.4344876543209935e+01
248 231      -2.2204460492503131e-15
248 232       4.4408920985006262e-16
248 233       2.1438802469135811e+02
248 234       6.2172489379008766e-15
248 235      -1.1217962962962966e+01
248 236       5.4344876543209892e+01
248 237       7.1054273576010019e-15
248 244       2.2435185185185205e+00
248 245      -7.9772469135802496e+01
248 246       1.4210854715202004e-14
248 247       8.8817841970012523e-16
248 249       7.1054273576010019e-15
248 250      -2.2435185185185196e+00
248 251      -7.9772469135802453e+01
248 252       0.0000000000000000e+00
248 289       2.8044907407407411e+00
248 290       2.0317052469135824e+01
248 291      -1.6826944444444454e+01
248 292       8.8817841970012523e-16
248 293       8.0520339506172860e+01
248 294      -6.7307777777777801e+01
248 295      -2.8044907407407411e+00
248 296       2.0317052469135806e+01
248 297      -1.6826944444444447e+01
248 304       5.6087962962963045e-01
248 305      -6.4814506172839588e+00
248 306      -3.3652777777777905e+00
248 307      -4.4408920985006262e-16
248 308      -2.7421543209876560e+01
248 309      -1.3461111111111119e+01
248 310      -5.6087962962963056e-01
248 311      -6.4814506172839534e+00
248 312      -3.3652777777777803e+00
249 249      -3.2507283950617295e+02
249 169       2.8044907407407407e+00
249 170       1.6826944444444457e+01
249 171       2.0317052469135810e+01
249 172      -5.5511151231257827e-16
249 173       6.7307777777777787e+01
249 174       8.0520339506172832e+01
249 175      -2.8044907407407407e+00
249 176       1.6826944444444443e+01
249 177       2.0317052469135799e+01
249 184       5.6089814814814813e+00
249 185      -3.3652777777777798e+00
249 186       2.7172438271604950e+01
249 187       2.2204460492503131e-16
249 188      -1.3461111111111119e+01
249 189       1.0719401234567903e+02
249 190      -5.6089814814814813e+00
249 191      -3.3652777777777727e+00
249 192       2.7172438271604936e+01
249 229       2.2204460492503131e-16
249 230      -3.9968028886505635e-15
249 231      -1.2962901234567898e+01
249 232       2.2204460492503131e-15
249 233       0.0000000000000000e+00
249 234      -5.4843086419753071e+01
249 235       5.5511151231257827e-16
249 236       7.9936057773011271e-15
249 237      -1.2962901234567889e+01
249 244       0.0000000000000000e+00
249 245       7.1054273576010019e-15
249 246      -7.9772469135802524e+01
249 247       2.6645352591003757e-15
249 248       7.1054273576010019e-15
249 250       0.0000000000000000e+00
249 251      -3.5527136788005009e-15
249 252      -7.9772469135802453e+01
249 289      -2.8044907407407411e+00
249 290      -1.6826944444444457e+01
249 291       2.0317052469135813e+01
249 292      -6.6613381477509392e-16
249 293      -6.7307777777777801e+01
249 294       8.0520339506172860e+01
249 295       2.8044907407407402e+00
249 296      -1.6826944444444450e+01
249 297       2.0317052469135799e+01
249 304      -5.6089814814814831e+00
249 305       3.3652777777777723e+00
249 306       2.7172438271604953e+01
249 307      -1.7763568394002505e-15
249 308       1.3461111111111116e+01
249 309       1.0719401234567906e+02
249 310       5.6089814814814813e+00
249 311       3.3652777777777780e+00
249 312       2.7172438271604936e+01
250 250      -1.5057119341563782e+02
250 172       9.4106995884773657e+00
250 173       2.8044907407407411e+00
250 174       2.8044907407407411e+00
250 175       3.5025267489711936e+01
250 176       3.3306690738754696e-16
250 177      -4.4408920985006262e-16
250 178       9.4106995884773657e+00
250 179      -2.8044907407407416e+00
250 180      -2.8044907407407416e+00
250 187       5.3597325102880644e+00
250 188      -5.6087962962963012e-01
250 189       5.6089814814814813e+00
250 190       1.6203868312757194e+01
250 191       8.8817841970012523e-16
250 192      -1.3322676295501878e-15
250 193       5.3597325102880617e+00
250 194       5.6087962962962934e-01
250 195      -5.6089814814814813e+00
250 232       1.0719465020576125e+01
250 233       1.1217962962962964e+01
250 234       3.3306690738754696e-16
250 235       3.2407736625514396e+01
250 236       1.5543122344752192e-15
250 237       8.8817841970012523e-16
250 238       1.0719465020576141e+01
250 239      -1.1217962962962968e+01
250 240       6.6613381477509392e-16
250 247      -3.2407736625514403e+01
250 248      -2.2435185185185196e+00
250 249       0.0000000000000000e+00
250 251       4.4408920985006262e-15
250 252       4.4408920985006262e-15
250 253      -3.2407736625514389e+01
250 254       2.2435185185185160e+00
250 255       1.1102230246251565e-15
250 292       9.4106995884773674e+00
250 293       2.8044907407407411e+00
250 294      -2.8044907407407407e+00
250 295       3.5025267489711936e+01
250 296       1.2212453270876722e-15
250 297      -1.2212453270876722e-15
250 298       9.4106995884773674e+00
250 299      -2.8044907407407407e+00
250 300       2.8044907407407407e+00
250 307       5.3597325102880653e+00
250 308      -5.6087962962963012e-01
250 309      -5.6089814814814805e+00
250 310       1.6203868312757194e+01
250 311       1.3322676295501878e-15
250 312      -1.9984014443252818e-15
250 313       5.3597325102880617e+00
250 314       5.6087962962962845e-01
250 315       5.6089814814814805e+00
251 251      -3.2507283950617290e+02
251 172       2.8044907407407411e+00
251 173       2.0317052469135795e+01
251 174       1.6826944444444440e+01
251 175       1.1102230246251565e-16
251 176       8.0520339506172832e+01
251 177       6.7307777777777773e+01
251 178      -2.8044907407407416e+00
251 179       2.0317052469135810e+01
251 180       1.6826944444444447e+01
251 187       5.6087962962962945e-01
251 188      -6.4814506172839526e+00
251 189       3.3652777777777771e+00
251 190       8.8817841970012523e-16
251 191      -2.7421543209876546e+01
251 192       1.3461111111111105e+01
251 193      -5.6087962962963023e-01
251 194      -6.4814506172839543e+00
251 195       3.3652777777777780e+00
251 232       1.1217962962962966e+01
251 233       5.4344876543209850e+01
251 234       5.3290705182007514e-15
251 235       1.5543122344752192e-15
251 236       2.1438802469135803e+02
251 237       1.1546319456101628e-14
251 238      -1.1217962962962966e+01
251 239       5.4344876543209907e+01
251 240       3.1086244689504383e-15
251 247       2.2435185185185165e+00
251 248      -7.9772469135802453e+01
251 249      -3.5527136788005009e-15
251 250       4.4408920985006262e-15
251 252       0.0000000000000000e+00
251 253      -2.2435185185185214e+00
251 254      -7.9772469135802439e+01
251 255       7.1054273576010019e-15
251 292       2.8044907407407407e+00
251 293       2.0317052469135795e+01
251 294      -1.6826944444444440e+01
251 295       8.8817841970012523e-16
251 296       8.0520339506172846e+01
251 297      -6.7307777777777773e+01
251 298      -2.8044907407407416e+00
251 299       2.0317052469135806e+01
251 300      -1.6826944444444450e+01
251 307       5.6087962962962956e-01
251 308      -6.4814506172839552e+00
251 309      -3.3652777777777731e+00
251 310       4.4408920985006262e-16
251 311      -2.7421543209876553e+01
251 312      -1.3461111111111114e+01
251 313      -5.6087962962963078e-01
251 314      -6.4814506172839534e+00
251 315      -3.3652777777777869e+00
252 252      -3.2507283950617278e+02
252 172       2.8044907407407411e+00
252 173       1.6826944444444440e+01
252 174       2.0317052469135799e+01
252 175      -1.1102230246251565e-15
252 176       6.7307777777777773e+01
252 177       8.0520339506172832e+01
252 178      -2.8044907407407407e+00
252 179       1.6826944444444443e+01
252 180       2.0317052469135806e+01
252 187       5.6089814814814831e+00
252 188      -3.3652777777777807e+00
252 189       2.7172438271604936e+01
252 190      -1.9984014443252818e-15
252 191      -1.3461111111111112e+01
252 192       1.0719401234567897e+02
252 193      -5.6089814814814822e+00
252 194      -3.3652777777777749e+00
252 195       2.7172438271604918e+01
252 232       4.4408920985006262e-16
252 233       7.9936057773011271e-15
252 234      -1.2962901234567898e+01
252 235       0.0000000000000000e+00
252 236       6.2172489379008766e-15
252 237      -5.4843086419753064e+01
252 238       1.1102230246251565e-16
252 239      -8.8817841970012523e-16
252 240      -1.2962901234567887e+01
252 247       4.4408920985006262e-16
252 248       0.0000000000000000e+00
252 249      -7.9772469135802453e+01
252 250       4.4408920985006262e-15
252 251       0.0000000000000000e+00
252 253      -4.4408920985006262e-16
252 254       3.5527136788005009e-15
252 255      -7.9772469135802453e+01
252 292      -2.8044907407407416e+00
252 293      -1.6826944444444447e+01
252 294       2.0317052469135795e+01
252 295      -6.6613381477509392e-16
252 296      -6.7307777777777773e+01
252 297       8.0520339506172832e+01
252 298       2.8044907407407407e+00
252 299      -1.6826944444444447e+01
252 300       2.0317052469135803e+01
252 307      -5.6089814814814822e+00
252 308       3.3652777777777834e+00
252 309       2.7172438271604939e+01
252 310      -1.5543122344752192e-15
252 311       1.3461111111111107e+01
252 312       1.0719401234567900e+02
252 313       5.6089814814814805e+00
252 314       3.3652777777777665e+00
252 315       2.7172438271604921e+01
253 253      -7.5285596707818911e+01
253 175       9.4106995884773639e+00
253 176       2.8044907407407402e+00
253 177       2.8044907407407402e+00
253 178       1.7512633744855965e+01
253 179       5.6087962962963001e-01
253 180       5.6087962962962956e-01
253 190       5.3597325102880617e+00
253 191      -5.6087962962963012e-01
253 192       5.6089814814814813e+00
253 193       8.1019341563785936e+00
253 194      -2.8044907407407407e+00
253 195       1.1217592592592600e+00
253 235       1.0719465020576123e+01
253 236       1.1217962962962964e+01
253 237       2.2204460492503131e-16
253 238       1.6203868312757198e+01
253 239       2.2435185185185187e+00
253 240       4.4408920985006262e-16
253 250      -3.2407736625514389e+01
253 251      -2.2435185185185214e+00
253 252      -4.4408920985006262e-16
253 254      -1.1217962962962961e+01
253 255       8.8817841970012523e-16
253 295       9.4106995884773639e+00
253 296       2.8044907407407407e+00
253 297      -2.8044907407407407e+00
253 298       1.7512633744855968e+01
253 299       5.6087962962962989e-01
253 300      -5.6087962962962967e-01
253 310       5.3597325102880617e+00
253 311      -5.6087962962963012e-01
253 312      -5.6089814814814805e+00
253 313       8.1019341563785954e+00
253 314      -2.8044907407407402e+00
253 315      -1.1217592592592585e+00
254 254      -1.6253641975308642e+02
254 175       2.8044907407407402e+00
254 176       2.0317052469135792e+01
254 177       1.6826944444444443e+01
254 178      -5.6087962962962956e-01
254 179       4.0260169753086430e+01
254 180       3.3653888888888901e+01
254 190       5.6087962962962934e-01
254 191      -6.4814506172839543e+00
254 192       3.3652777777777683e+00
254 193      -2.8044907407407402e+00
254 194      -1.3710771604938273e+01
254 195       6.7305555555555472e+00
254 235       1.1217962962962966e+01
254 236       5.4344876543209850e+01
254 237       2.2204460492503131e-15
254 238      -2.2435185185185187e+00
254 239       1.0719401234567901e+02
254 240       8.8817841970012523e-16
254 250       2.2435185185185160e+00
254 251      -7.9772469135802439e+01
254 252       3.5527136788005009e-15
254 253      -1.1217962962962961e+01
254 255       1.4210854715202004e-14
254 295       2.8044907407407407e+00
254 296       2.0317052469135795e+01
254 297      -1.6826944444444447e+01
254 298      -5.6087962962962945e-01
254 299       4.0260169753086430e+01
254 300      -3.3653888888888893e+01
254 310       5.6087962962962923e-01
254 311      -6.4814506172839561e+00
254 312      -3.3652777777777745e+00
254 313      -2.8044907407407402e+00
254 314      -1.3710771604938277e+01
254 315      -6.7305555555555578e+00
255 255      -1.6253641975308636e+02
255 175       2.8044907407407407e+00
255 176       1.6826944444444440e+01
255 177       2.0317052469135799e+01
255 178      -5.6087962962963023e-01
255 179       3.3653888888888901e+01
255 180       4.0260169753086423e+01
255 190       5.6089814814814813e+00
255 191      -3.3652777777777882e+00
255 192       2.7172438271604918e+01
255 193      -1.1217592592592587e+00
255 194      -6.7305555555555632e+00
255 195       5.3597006172839485e+01
255 235       4.4408920985006262e-16
255 236       1.3322676295501878e-15
255 237      -1.2962901234567905e+01
255 238       0.0000000000000000e+00
255 239       0.0000000000000000e+00
255 240      -2.7421543209876543e+01
255 250       1.1102230246251565e-15
255 251       7.1054273576010019e-15
255 252      -7.9772469135802453e+01
255 253       8.8817841970012523e-16
255 254       1.4210854715202004e-14
255 295      -2.8044907407407411e+00
255 296      -1.6826944444444443e+01
255 297       2.0317052469135803e+01
255 298       5.6087962962962934e-01
255 299      -3.3653888888888886e+01
255 300       4.0260169753086423e+01
255 310      -5.6089814814814822e+00
255 311       3.3652777777777780e+00
255 312       2.7172438271604921e+01
255 313       1.1217592592592589e+00
255 314       6.7305555555555454e+00
255 315       5.3597006172839492e+01
256 256      -7.5285596707818939e+01
256 196       8.1019341563786078e+00
256 197      -2.8044907407407407e+00
256 198      -1.1217592592592605e+00
256 199       5.3597325102880671e+00
256 200      -5.6087962962962845e-01
256 201      -5.6089814814814822e+00
256 211       1.7512633744855975e+01
256 212       5.6087962962963001e-01
256 213      -5.6087962962963023e-01
256 214       9.4106995884773692e+00
256 215       2.8044907407407411e+00
256 216      -2.8044907407407411e+00
256 257      -1.1217962962962972e+01
256 258      -1.7763568394002505e-15
256 259      -3.2407736625514417e+01
256 260      -2.2435185185185160e+00
256 261      -4.4408920985006262e-16
256 271       1.6203868312757194e+01
256 272       2.2435185185185178e+00
256 273       0.0000000000000000e+00
256 274       1.0719465020576138e+01
256 275       1.1217962962962968e+01
256 276      -3.3306690738754696e-16
256 316       8.1019341563786060e+00
256 317      -2.8044907407407407e+00
256 318       1.1217592592592600e+00
256 319       5.3597325102880680e+00
256 320      -5.6087962962962956e-01
256 321       5.6089814814814840e+00
256 331       1.7512633744855968e+01
256 332       5.6087962962963001e-01
256 333       5.6087962962963012e-01
256 334       9.4106995884773639e+00
256 335       2.8044907407407416e+00
256 336       2.8044907407407416e+00
256 385      -5.5555555555555552e-02
256 386       0.0000000000000000e+00
256 387       0.0000000000000000e+00
256 394      -5.5555555555555455e-02
256 395       0.0000000000000000e+00
256 396       0.0000000000000000e+00
256 412       0.0000000000000000e+00
256 413       0.0000000000000000e+00
256 414       0.0000000000000000e+00
256 421       0.0000000000000000e+00
256 422       0.0000000000000000e+00
256 423       0.0000000000000000e+00
257 257      -1.6253641975308653e+02
257 196      -2.8044907407407407e+00
257 197      -1.3710771604938261e+01
257 198      -6.7305555555555667e+00
257 199       5.6087962962963078e-01
257 200      -6.4814506172839463e+00
257 201      -3.3652777777777869e+00
257 211      -5.6087962962962945e-01
257 212       4.0260169753086423e+01
257 213      -3.3653888888888893e+01
257 214       2.8044907407407416e+00
257 215       2.0317052469135813e+01
257 216      -1.6826944444444450e+01
257 256      -1.1217962962962972e+01
257 258       2.1316282072803006e-14
257 259       2.2435185185185214e+00
257 260      -7.9772469135802481e+01
257 261       3.5527136788005009e-15
257 271      -2.2435185185185214e+00
257 272       1.0719401234567903e+02
257 273       0.0000000000000000e+00
257 274       1.1217962962962968e+01
257 275       5.4344876543209907e+01
257 276      -4.4408920985006262e-16
257 316      -2.8044907407407411e+00
257 317      -1.3710771604938261e+01
257 318       6.7305555555555525e+00
257 319       5.6087962962962945e-01
257 320      -6.4814506172839463e+00
257 321       3.3652777777777807e+00
257 331      -5.6087962962962923e-01
257 332       4.0260169753086416e+01
257 333       3.3653888888888886e+01
257 334       2.8044907407407416e+00
257 335       2.0317052469135803e+01
257 336       1.6826944444444447e+01
257 385       0.0000000000000000e+00
257 386       0.0000000000000000e+00
257 387       5.5555555555555552e-02
257 394       0.0000000000000000e+00
257 395       0.0000000000000000e+00
257 396       5.5555555555555455e-02
257 412       0.0000000000000000e+00
257 413       0.0000000000000000e+00
257 414       0.0000000000000000e+00
257 421       0.0000000000000000e+00
257 422       0.0000000000000000e+00
257 423       0.0000000000000000e+00
258 258      -1.6253641975308651e+02
258 196       1.1217592592592591e+00
258 197       6.7305555555555543e+00
258 198       5.3597006172839535e+01
258 199      -5.6089814814814831e+00
258 200       3.3652777777777718e+00
258 201       2.7172438271604946e+01
258 211       5.6087962962962967e-01
258 212      -3.3653888888888893e+01
258 213       4.0260169753086423e+01
258 214      -2.8044907407407411e+00
258 215      -1.6826944444444447e+01
258 216       2.0317052469135806e+01
258 256      -1.7763568394002505e-15
258 257       2.1316282072803006e-14
258 259      -4.4408920985006262e-16
258 260       3.5527136788005009e-15
258 261      -7.9772469135802481e+01
258 271       0.0000000000000000e+00
258 272      -8.8817841970012523e-16
258 273      -2.7421543209876546e+01
258 274      -2.2204460492503131e-16
258 275       0.0000000000000000e+00
258 276      -1.2962901234567894e+01
258 316      -1.1217592592592585e+00
258 317      -6.7305555555555632e+00
258 318       5.3597006172839521e+01
258 319       5.6089814814814831e+00
258 320      -3.3652777777777758e+00
258 321       2.7172438271604946e+01
258 331      -5.6087962962962923e-01
258 332       3.3653888888888886e+01
258 333       4.0260169753086416e+01
258 334       2.8044907407407411e+00
258 335       1.6826944444444443e+01
258 336       2.0317052469135799e+01
258 385       0.0000000000000000e+00
258 386       5.5555555555555552e-02
258 387       0.0000000000000000e+00
258 394       0.0000000000000000e+00
258 395       5.5555555555555455e-02
258 396       0.0000000000000000e+00
258 412       0.0000000000000000e+00
258 413       0.0000000000000000e+00
258 414       0.0000000000000000e+00
258 421       0.0000000000000000e+00
258 422       0.0000000000000000e+00
258 423       0.0000000000000000e+00
259 259      -1.5057119341563788e+02
259 196       5.3597325102880671e+00
259 197       5.6087962962963023e-01
259 198       5.6089814814814822e+00
259 199       1.6203868312757216e+01
259 200      -8.8817841970012523e-16
259 201      -1.9984014443252818e-15
259 202       5.3597325102880706e+00
259 203      -5.6087962962962834e-01
259 204      -5.6089814814814822e+00
259 211       9.4106995884773639e+00
259 212      -2.8044907407407402e+00
259 213       2.8044907407407411e+00
259 214       3.5025267489711950e+01
259 215       2.2204460492503131e-16
259 216      -9.9920072216264089e-16
259 217       9.4106995884773728e+00
259 218       2.8044907407407411e+00
259 219      -2.8044907407407416e+00
259 256      -3.2407736625514417e+01
259 257       2.2435185185185214e+00
259 258      -4.4408920985006262e-16
259 260      -6.2172489379008766e-15
259 261       2.6645352591003757e-15
259 262      -3.2407736625514417e+01
259 263      -2.2435185185185174e+00
259 264       0.0000000000000000e+00
259 271       1.0719465020576122e+01
259 272      -1.1217962962962964e+01
259 273       0.0000000000000000e+00
259 274       3.2407736625514403e+01
259 275      -1.7763568394002505e-15
259 276       8.8817841970012523e-16
259 277       1.0719465020576138e+01
259 278       1.1217962962962964e+01
259 279       1.1102230246251565e-16
259 316       5.3597325102880680e+00
259 317       5.6087962962963067e-01
259 318      -5.6089814814814831e+00
259 319       1.6203868312757212e+01
259 320      -4.4408920985006262e-16
259 321      -2.2204460492503131e-16
259 322       5.3597325102880715e+00
259 323      -5.6087962962962934e-01
259 324       5.6089814814814822e+00
259 331       9.4106995884773621e+00
259 332      -2.8044907407407407e+00
259 333      -2.8044907407407411e+00
259 334       3.5025267489711936e+01
259 335       4.4408920985006262e-16
259 336       1.1102230246251565e-16
259 337       9.4106995884773674e+00
259 338       2.8044907407407411e+00
259 339       2.8044907407407411e+00
259 412       0.0000000000000000e+00
259 413       0.0000000000000000e+00
259 414       0.0000000000000000e+00
259 421       0.0000000000000000e+00
259 422       0.0000000000000000e+00
259 423       0.0000000000000000e+00
260 260      -3.2507283950617301e+02
260 196      -5.6087962962962878e-01
260 197      -6.4814506172839463e+00
260 198      -3.3652777777777767e+00
260 199       0.0000000000000000e+00
260 200      -2.7421543209876518e+01
260 201      -1.3461111111111121e+01
260 202       5.6087962962963067e-01
260 203      -6.4814506172839437e+00
260 204      -3.3652777777777834e+00
260 211      -2.8044907407407407e+00
260 212       2.0317052469135792e+01
260 213      -1.6826944444444440e+01
260 214       0.0000000000000000e+00
260 215       8.0520339506172874e+01
260 216      -6.7307777777777787e+01
260 217       2.8044907407407416e+00
260 218       2.0317052469135820e+01
260 219      -1.6826944444444454e+01
260 256      -2.2435185185185160e+00
260 257      -7.9772469135802481e+01
260 258       3.5527136788005009e-15
260 259      -6.2172489379008766e-15
260 261       3.5527136788005009e-14
260 262       2.2435185185185196e+00
260 263      -7.9772469135802481e+01
260 264       0.0000000000000000e+00
260 271      -1.1217962962962964e+01
260 272       5.4344876543209843e+01
260 273      -4.4408920985006262e-16
260 274      -3.7747582837255322e-15
260 275       2.1438802469135805e+02
260 276      -1.3322676295501878e-14
260 277       1.1217962962962966e+01
260 278       5.4344876543209935e+01
260 279      -1.7763568394002505e-15
260 316      -5.6087962962962801e-01
260 317      -6.4814506172839454e+00
260 318       3.3652777777777718e+00
260 319      -8.8817841970012523e-16
260 320      -2.7421543209876518e+01
260 321       1.3461111111111105e+01
260 322       5.6087962962962923e-01
260 323      -6.4814506172839419e+00
260 324       3.3652777777777811e+00
260 331      -2.8044907407407407e+00
260 332       2.0317052469135792e+01
260 333       1.6826944444444443e+01
260 334       9.9920072216264089e-16
260 335       8.0520339506172832e+01
260 336       6.7307777777777801e+01
260 337       2.8044907407407407e+00
260 338       2.0317052469135810e+01
260 339       1.6826944444444457e+01
260 412       0.0000000000000000e+00
260 413       0.0000000000000000e+00
260 414       0.0000000000000000e+00
260 421       0.0000000000000000e+00
260 422       0.0000000000000000e+00
260 423       0.0000000000000000e+00
261 261      -3.2507283950617301e+02
261 196       5.6089814814814822e+00
261 197       3.3652777777777820e+00
261 198       2.7172438271604953e+01
261 199      -6.6613381477509392e-16
261 200       1.3461111111111116e+01
261 201       1.0719401234567908e+02
261 202      -5.6089814814814831e+00
261 203       3.3652777777777758e+00
261 204       2.7172438271604960e+01
261 211       2.8044907407407407e+00
261 212      -1.6826944444444440e+01
261 213       2.0317052469135803e+01
261 214      -5.5511151231257827e-16
261 215      -6.7307777777777801e+01
261 216       8.0520339506172860e+01
261 217      -2.8044907407407407e+00
261 218      -1.6826944444444450e+01
261 219       2.0317052469135817e+01
261 256      -4.4408920985006262e-16
261 257       3.5527136788005009e-15
261 258      -7.9772469135802481e+01
261 259       2.6645352591003757e-15
261 260       3.5527136788005009e-14
261 262      -1.5543122344752192e-15
261 263       0.0000000000000000e+00
261 264      -7.9772469135802481e+01
261 271      -3.3306690738754696e-16
261 272      -4.4408920985006262e-16
261 273      -1.2962901234567909e+01
261 274       1.3322676295501878e-15
261 275      -8.8817841970012523e-15
261 276      -5.4843086419753092e+01
261 277      -3.3306690738754696e-16
261 278      -3.5527136788005009e-15
261 279      -1.2962901234567902e+01
261 316      -5.6089814814814822e+00
261 317      -3.3652777777777878e+00
261 318       2.7172438271604946e+01
261 319       8.8817841970012523e-16
261 320      -1.3461111111111123e+01
261 321       1.0719401234567906e+02
261 322       5.6089814814814831e+00
261 323      -3.3652777777777727e+00
261 324       2.7172438271604950e+01
261 331      -2.8044907407407411e+00
261 332       1.6826944444444436e+01
261 333       2.0317052469135799e+01
261 334       1.1102230246251565e-15
261 335       6.7307777777777787e+01
261 336       8.0520339506172846e+01
261 337       2.8044907407407411e+00
261 338       1.6826944444444450e+01
261 339       2.0317052469135810e+01
261 412       0.0000000000000000e+00
261 413       0.0000000000000000e+00
261 414       0.0000000000000000e+00
261 421       0.0000000000000000e+00
261 422       0.0000000000000000e+00
261 423       0.0000000000000000e+00
262 262      -1.5057119341563788e+02
262 199       5.3597325102880689e+00
262 200       5.6087962962963012e-01
262 201       5.6089814814814822e+00
262 202       1.6203868312757216e+01
262 203       0.0000000000000000e+00
262 204      -1.9984014443252818e-15
262 205       5.3597325102880671e+00
262 206      -5.6087962962962945e-01
262 207      -5.6089814814814840e+00
262 214       9.4106995884773692e+00
262 215      -2.8044907407407402e+00
262 216       2.8044907407407411e+00
262 217       3.5025267489711950e+01
262 218       9.9920072216264089e-16
262 219      -6.6613381477509392e-16
262 220       9.4106995884773674e+00
262 221       2.8044907407407407e+00
262 222      -2.8044907407407420e+00
262 259      -3.2407736625514417e+01
262 260       2.2435185185185196e+00
262 261      -1.5543122344752192e-15
262 263      -4.4408920985006262e-15
262 264       8.8817841970012523e-16
262 265      -3.2407736625514389e+01
262 266      -2.2435185185185218e+00
262 267       4.4408920985006262e-16
262 274       1.0719465020576123e+01
262 275      -1.1217962962962964e+01
262 276      -4.4408920985006262e-16
262 277       3.2407736625514396e+01
262 278       6.6613381477509392e-16
262 279      -4.4408920985006262e-16
262 280       1.0719465020576122e+01
262 281       1.1217962962962964e+01
262 282       1.1102230246251565e-16
262 319       5.3597325102880697e+00
262 320       5.6087962962963067e-01
262 321      -5.6089814814814822e+00
262 322       1.6203868312757209e+01
262 323       0.0000000000000000e+00
262 324       1.1102230246251565e-15
262 325       5.3597325102880662e+00
262 326      -5.6087962962963078e-01
262 327       5.6089814814814849e+00
262 334       9.4106995884773639e+00
262 335      -2.8044907407407398e+00
262 336      -2.8044907407407407e+00
262 337       3.5025267489711936e+01
262 338       9.9920072216264089e-16
262 339       8.8817841970012523e-16
262 340       9.4106995884773639e+00
262 341       2.8044907407407411e+00
262 342       2.8044907407407416e+00
263 263      -3.2507283950617301e+02
263 199      -5.6087962962962901e-01
263 200      -6.4814506172839437e+00
263 201      -3.3652777777777727e+00
263 202       4.4408920985006262e-16
263 203      -2.7421543209876518e+01
263 204      -1.3461111111111109e+01
263 205       5.6087962962963001e-01
263 206      -6.4814506172839410e+00
263 207      -3.3652777777777763e+00
263 214      -2.8044907407407402e+00
263 215       2.0317052469135810e+01
263 216      -1.6826944444444454e+01
263 217       8.8817841970012523e-16
263 218       8.0520339506172860e+01
263 219      -6.7307777777777801e+01
263 220       2.8044907407407411e+00
263 221       2.0317052469135795e+01
263 222      -1.6826944444444443e+01
263 259      -2.2435185185185174e+00
263 260      -7.9772469135802481e+01
263 261       0.0000000000000000e+00
263 262      -4.4408920985006262e-15
263 264       1.4210854715202004e-14
263 265       2.2435185185185165e+00
263 266      -7.9772469135802424e+01
263 267       7.1054273576010019e-15
263 274      -1.1217962962962964e+01
263 275       5.4344876543209878e+01
263 276      -2.2204460492503131e-15
263 277      -1.1102230246251565e-15
263 278       2.1438802469135805e+02
263 279       7.1054273576010019e-15
263 280       1.1217962962962964e+01
263 281       5.4344876543209850e+01
263 282       6.6613381477509392e-15
263 319      -5.6087962962962790e-01
263 320      -6.4814506172839419e+00
263 321       3.3652777777777718e+00
263 322      -8.8817841970012523e-16
263 323      -2.7421543209876518e+01
263 324       1.3461111111111107e+01
263 325       5.6087962962962867e-01
263 326      -6.4814506172839419e+00
263 327       3.3652777777777692e+00
263 334      -2.8044907407407398e+00
263 335       2.0317052469135795e+01
263 336       1.6826944444444450e+01
263 337       8.8817841970012523e-16
263 338       8.0520339506172832e+01
263 339       6.7307777777777787e+01
263 340       2.8044907407407411e+00
263 341       2.0317052469135788e+01
263 342       1.6826944444444436e+01
264 264      -3.2507283950617295e+02
264 199       5.6089814814814822e+00
264 200       3.3652777777777851e+00
264 201       2.7172438271604960e+01
264 202       2.2204460492503131e-16
264 203       1.3461111111111119e+01
264 204       1.0719401234567906e+02
264 205      -5.6089814814814840e+00
264 206       3.3652777777777798e+00
264 207       2.7172438271604946e+01
264 214       2.8044907407407407e+00
264 215      -1.6826944444444450e+01
264 216       2.0317052469135810e+01
264 217      -2.2204460492503131e-16
264 218      -6.7307777777777801e+01
264 219       8.0520339506172860e+01
264 220      -2.8044907407407411e+00
264 221      -1.6826944444444447e+01
264 222       2.0317052469135799e+01
264 259       0.0000000000000000e+00
264 260       0.0000000000000000e+00
264 261      -7.9772469135802481e+01
264 262       8.8817841970012523e-16
264 263       1.4210854715202004e-14
264 265       0.0000000000000000e+00
264 266       7.1054273576010019e-15
264 267      -7.9772469135802439e+01
264 274       2.2204460492503131e-16
264 275      -5.3290705182007514e-15
264 276      -1.2962901234567912e+01
264 277       0.0000000000000000e+00
264 278       7.1054273576010019e-15
264 279      -5.4843086419753092e+01
264 280       1.1102230246251565e-16
264 281       5.3290705182007514e-15
264 282      -1.2962901234567907e+01
264 319      -5.6089814814814822e+00
264 320      -3.3652777777777820e+00
264 321       2.7172438271604950e+01
264 322      -1.3322676295501878e-15
264 323      -1.3461111111111119e+01
264 324       1.0719401234567903e+02
264 325       5.6089814814814840e+00
264 326      -3.3652777777777860e+00
264 327       2.7172438271604943e+01
264 334      -2.8044907407407411e+00
264 335       1.6826944444444447e+01
264 336       2.0317052469135803e+01
264 337       6.6613381477509392e-16
264 338       6.7307777777777773e+01
264 339       8.0520339506172846e+01
264 340       2.8044907407407411e+00
264 341       1.6826944444444436e+01
264 342       2.0317052469135799e+01
265 265      -1.5057119341563785e+02
265 202       5.3597325102880671e+00
265 203       5.6087962962962934e-01
265 204       5.6089814814814822e+00
265 205       1.6203868312757216e+01
265 206       2.2204460492503131e-15
265 207      -1.3322676295501878e-15
265 208       5.3597325102880706e+00
265 209      -5.6087962962962956e-01
265 210      -5.6089814814814840e+00
265 217       9.4106995884773692e+00
265 218      -2.8044907407407411e+00
265 219       2.8044907407407407e+00
265 220       3.5025267489711936e+01
265 221       9.9920072216264089e-16
265 222      -5.5511151231257827e-16
265 223       9.4106995884773639e+00
265 224       2.8044907407407407e+00
265 225      -2.8044907407407411e+00
265 262      -3.2407736625514389e+01
265 263       2.2435185185185165e+00
265 264       0.0000000000000000e+00
265 266       8.8817841970012523e-16
265 267       1.7763568394002505e-15
265 268      -3.2407736625514417e+01
265 269      -2.2435185185185222e+00
265 270      -4.4408920985006262e-16
265 277       1.0719465020576134e+01
265 278      -1.1217962962962966e+01
265 279       2.2204460492503131e-16
265 280       3.2407736625514396e+01
265 281       2.8865798640254070e-15
265 282      -4.4408920985006262e-16
265 283       1.0719465020576123e+01
265 284       1.1217962962962964e+01
265 285      -2.2204460492503131e-16
265 322       5.3597325102880671e+00
265 323       5.6087962962963001e-01
265 324      -5.6089814814814840e+00
265 325       1.6203868312757212e+01
265 326       1.3322676295501878e-15
265 327       1.5543122344752192e-15
265 328       5.3597325102880706e+00
265 329      -5.6087962962963100e-01
265 330       5.6089814814814840e+00
265 337       9.4106995884773657e+00
265 338      -2.8044907407407402e+00
265 339      -2.8044907407407411e+00
265 340       3.5025267489711936e+01
265 341       1.3322676295501878e-15
265 342       9.9920072216264089e-16
265 343       9.4106995884773621e+00
265 344       2.8044907407407407e+00
265 345       2.8044907407407411e+00
266 266      -3.2507283950617295e+02
266 202      -5.6087962962963001e-01
266 203      -6.4814506172839410e+00
266 204      -3.3652777777777825e+00
266 205       2.6645352591003757e-15
266 206      -2.7421543209876507e+01
266 207      -1.3461111111111112e+01
266 208       5.6087962962962967e-01
266 209      -6.4814506172839419e+00
266 210      -3.3652777777777718e+00
266 217      -2.8044907407407411e+00
266 218       2.0317052469135803e+01
266 219      -1.6826944444444447e+01
266 220       1.2212453270876722e-15
266 221       8.0520339506172832e+01
266 222      -6.7307777777777773e+01
266 223       2.8044907407407411e+00
266 224       2.0317052469135792e+01
266 225      -1.6826944444444443e+01
266 262      -2.2435185185185218e+00
266 263      -7.9772469135802424e+01
266 264       7.1054273576010019e-15
266 265       8.8817841970012523e-16
266 267      -7.1054273576010019e-15
266 268       2.2435185185185169e+00
266 269      -7.9772469135802481e+01
266 270      -7.1054273576010019e-15
266 277      -1.1217962962962968e+01
266 278       5.4344876543209885e+01
266 279       5.3290705182007514e-15
266 280       2.2204460492503131e-15
266 281       2.1438802469135800e+02
266 282       7.1054273576010019e-15
266 283       1.1217962962962964e+01
266 284       5.4344876543209850e+01
266 285       4.4408920985006262e-16
266 322      -5.6087962962962934e-01
266 323      -6.4814506172839419e+00
266 324       3.3652777777777763e+00
266 325       4.4408920985006262e-16
266 326      -2.7421543209876514e+01
266 327       1.3461111111111119e+01
266 328       5.6087962962962856e-01
266 329      -6.4814506172839419e+00
266 330       3.3652777777777771e+00
266 337      -2.8044907407407402e+00
266 338       2.0317052469135795e+01
266 339       1.6826944444444440e+01
266 340       1.5543122344752192e-15
266 341       8.0520339506172803e+01
266 342       6.7307777777777773e+01
266 343       2.8044907407407411e+00
266 344       2.0317052469135788e+01
266 345       1.6826944444444440e+01
267 267      -3.2507283950617295e+02
267 202       5.6089814814814822e+00
267 203       3.3652777777777718e+00
267 204       2.7172438271604946e+01
267 205      -8.8817841970012523e-16
267 206       1.3461111111111123e+01
267 207       1.0719401234567904e+02
267 208      -5.6089814814814831e+00
267 209       3.3652777777777896e+00
267 210       2.7172438271604953e+01
267 217       2.8044907407407411e+00
267 218      -1.6826944444444447e+01
267 219       2.0317052469135799e+01
267 220      -3.3306690738754696e-16
267 221      -6.7307777777777773e+01
267 222       8.0520339506172832e+01
267 223      -2.8044907407407411e+00
267 224      -1.6826944444444447e+01
267 225       2.0317052469135803e+01
267 262       4.4408920985006262e-16
267 263       7.1054273576010019e-15
267 264      -7.9772469135802439e+01
267 265       1.7763568394002505e-15
267 266      -7.1054273576010019e-15
267 268       2.2204460492503131e-16
267 269      -7.1054273576010019e-15
267 270      -7.9772469135802510e+01
267 277       2.2204460492503131e-16
267 278       7.1054273576010019e-15
267 279      -1.2962901234567894e+01
267 280      -4.4408920985006262e-16
267 281       1.4210854715202004e-14
267 282      -5.4843086419753085e+01
267 283      -2.2204460492503131e-16
267 284       3.5527136788005009e-15
267 285      -1.2962901234567910e+01
267 322      -5.6089814814814840e+00
267 323      -3.3652777777777789e+00
267 324       2.7172438271604943e+01
267 325       1.5543122344752192e-15
267 326      -1.3461111111111119e+01
267 327       1.0719401234567904e+02
267 328       5.6089814814814831e+00
267 329      -3.3652777777777811e+00
267 330       2.7172438271604953e+01
267 337      -2.8044907407407411e+00
267 338       1.6826944444444440e+01
267 339       2.0317052469135799e+01
267 340       7.7715611723760958e-16
267 341       6.7307777777777773e+01
267 342       8.0520339506172846e+01
267 343       2.8044907407407416e+00
267 344       1.6826944444444440e+01
267 345       2.0317052469135799e+01
268 268      -7.5285596707818939e+01
268 205       5.3597325102880706e+00
268 206       5.6087962962962890e-01
268 207       5.6089814814814822e+00
268 208       8.1019341563786131e+00
268 209       2.8044907407407420e+00
268 210       1.1217592592592587e+00
268 220       9.4106995884773674e+00
268 221      -2.8044907407407411e+00
268 222       2.8044907407407402e+00
268 223       1.7512633744855972e+01
268 224      -5.6087962962962945e-01
268 225       5.6087962962962945e-01
268 265      -3.2407736625514417e+01
268 266       2.2435185185185169e+00
268 267       2.2204460492503131e-16
268 269       1.1217962962962968e+01
268 270       2.6645352591003757e-15
268 280       1.0719465020576141e+01
268 281      -1.1217962962962966e+01
268 282       4.4408920985006262e-16
268 283       1.6203868312757194e+01
268 284      -2.2435185185185187e+00
268 285       4.4408920985006262e-16
268 325       5.3597325102880706e+00
268 326       5.6087962962962989e-01
268 327      -5.6089814814814831e+00
268 328       8.1019341563786114e+00
268 329       2.8044907407407416e+00
268 330      -1.1217592592592598e+00
268 340       9.4106995884773657e+00
268 341      -2.8044907407407411e+00
268 342      -2.8044907407407411e+00
268 343       1.7512633744855965e+01
268 344      -5.6087962962962934e-01
268 345      -5.6087962962962934e-01
269 269      -1.6253641975308653e+02
269 205      -5.6087962962963023e-01
269 206      -6.4814506172839419e+00
269 207      -3.3652777777777807e+00
269 208       2.8044907407407420e+00
269 209      -1.3710771604938257e+01
269 210      -6.7305555555555525e+00
269 220      -2.8044907407407407e+00
269 221       2.0317052469135806e+01
269 222      -1.6826944444444450e+01
269 223       5.6087962962962989e-01
269 224       4.0260169753086430e+01
269 225      -3.3653888888888886e+01
269 265      -2.2435185185185222e+00
269 266      -7.9772469135802481e+01
269 267      -7.1054273576010019e-15
269 268       1.1217962962962968e+01
269 270      -7.1054273576010019e-15
269 280      -1.1217962962962968e+01
269 281       5.4344876543209907e+01
269 282      -1.7763568394002505e-15
269 283       2.2435185185185196e+00
269 284       1.0719401234567903e+02
269 285      -3.5527136788005009e-15
269 325      -5.6087962962962956e-01
269 326      -6.4814506172839410e+00
269 327       3.3652777777777887e+00
269 328       2.8044907407407411e+00
269 329      -1.3710771604938259e+01
269 330       6.7305555555555685e+00
269 340      -2.8044907407407411e+00
269 341       2.0317052469135803e+01
269 342       1.6826944444444447e+01
269 343       5.6087962962963023e-01
269 344       4.0260169753086409e+01
269 345       3.3653888888888893e+01
270 270      -1.6253641975308653e+02
270 205       5.6089814814814831e+00
270 206       3.3652777777777780e+00
270 207       2.7172438271604953e+01
270 208      -1.1217592592592605e+00
270 209       6.7305555555555729e+00
270 210       5.3597006172839542e+01
270 220       2.8044907407407407e+00
270 221      -1.6826944444444450e+01
270 222       2.0317052469135806e+01
270 223      -5.6087962962963001e-01
270 224      -3.3653888888888893e+01
270 225       4.0260169753086423e+01
270 265      -4.4408920985006262e-16
270 266      -7.1054273576010019e-15
270 267      -7.9772469135802510e+01
270 268       2.6645352591003757e-15
270 269      -7.1054273576010019e-15
270 280       1.1102230246251565e-16
270 281       5.3290705182007514e-15
270 282      -1.2962901234567889e+01
270 283       4.4408920985006262e-16
270 284       7.1054273576010019e-15
270 285      -2.7421543209876546e+01
270 325      -5.6089814814814840e+00
270 326      -3.3652777777777736e+00
270 327       2.7172438271604953e+01
270 328       1.1217592592592602e+00
270 329      -6.7305555555555543e+00
270 330       5.3597006172839542e+01
270 340      -2.8044907407407411e+00
270 341       1.6826944444444443e+01
270 342       2.0317052469135803e+01
270 343       5.6087962962963023e-01
270 344       3.3653888888888886e+01
270 345       4.0260169753086423e+01
271 271      -1.5057119341563785e+02
271 196       1.7512633744855968e+01
271 197      -5.6087962962963078e-01
271 198      -5.6087962962963012e-01
271 199       9.4106995884773621e+00
271 200      -2.8044907407407411e+00
271 201      -2.8044907407407411e+00
271 211       1.6203868312757205e+01
271 212       4.4408920985006262e-16
271 213      -2.2435185185185214e+00
271 214       1.0719465020576134e+01
271 215       1.8873791418627661e-15
271 216      -1.1217962962962964e+01
271 226       1.7512633744855968e+01
271 227       5.6087962962962956e-01
271 228      -5.6087962962962901e-01
271 229       9.4106995884773674e+00
271 230       2.8044907407407407e+00
271 231      -2.8044907407407407e+00
271 256       1.6203868312757194e+01
271 257      -2.2435185185185214e+00
271 258       0.0000000000000000e+00
271 259       1.0719465020576122e+01
271 260      -1.1217962962962964e+01
271 261      -3.3306690738754696e-16
271 272      -1.7763568394002505e-15
271 273      -1.7763568394002505e-15
271 274      -6.4815473251028806e+01
271 275       5.7731597280508140e-15
271 276      -4.4408920985006262e-16
271 286       1.6203868312757198e+01
271 287       2.2435185185185142e+00
271 288       8.8817841970012523e-16
271 289       1.0719465020576138e+01
271 290       1.1217962962962964e+01
271 291       1.1102230246251565e-16
271 316       1.7512633744855975e+01
271 317      -5.6087962962963089e-01
271 318       5.6087962962963001e-01
271 319       9.4106995884773657e+00
271 320      -2.8044907407407416e+00
271 321       2.8044907407407411e+00
271 331       1.6203868312757201e+01
271 332       8.8817841970012523e-16
271 333       2.2435185185185205e+00
271 334       1.0719465020576134e+01
271 335       4.4408920985006262e-16
271 336       1.1217962962962966e+01
271 346       1.7512633744855968e+01
271 347       5.6087962962962878e-01
271 348       5.6087962962962845e-01
271 349       9.4106995884773639e+00
271 350       2.8044907407407407e+00
271 351       2.8044907407407402e+00
271 385      -5.5555555555555497e-02
271 386       0.0000000000000000e+00
271 387       0.0000000000000000e+00
271 388      -5.5555555555555525e-02
271 389       0.0000000000000000e+00
271 390       0.0000000000000000e+00
271 394      -5.5555555555555532e-02
271 395       0.0000000000000000e+00
271 396       0.0000000000000000e+00
271 397      -5.5555555555555504e-02
271 398       0.0000000000000000e+00
271 399       0.0000000000000000e+00
271 412       0.0000000000000000e+00
271 413       0.0000000000000000e+00
271 414       0.0000000000000000e+00
271 415       0.0000000000000000e+00
271 416       0.0000000000000000e+00
271 417       0.0000000000000000e+00
271 421       0.0000000000000000e+00
271 422       0.0000000000000000e+00
271 423       0.0000000000000000e+00
271 424       0.0000000000000000e+00
271 425       0.0000000000000000e+00
271 426       0.0000000000000000e+00
272 272      -3.2507283950617290e+02
272 196       5.6087962962962834e-01
272 197       4.0260169753086416e+01
272 198       3.3653888888888886e+01
272 199      -2.8044907407407407e+00
272 200       2.0317052469135788e+01
272 201       1.6826944444444440e+01
272 211       8.8817841970012523e-16
272 212      -2.7421543209876532e+01
272 213      -1.5987211554602254e-14
272 214       2.4424906541753444e-15
272 215      -1.2962901234567898e+01
272 216      -1.9984014443252818e-14
272 226      -5.6087962962963023e-01
272 227       4.0260169753086423e+01
272 228      -3.3653888888888886e+01
272 229       2.8044907407407411e+00
272 230       2.0317052469135813e+01
272 231      -1.6826944444444447e+01
272 256       2.2435185185185178e+00
272 257       1.0719401234567903e+02
272 258      -8.8817841970012523e-16
272 259      -1.1217962962962964e+01
272 260       5.4344876543209843e+01
272 261      -4.4408920985006262e-16
272 271      -1.7763568394002505e-15
272 273       1.4210854715202004e-14
272 274       6.2172489379008766e-15
272 275      -1.5954493827160488e+02
272 276       2.1316282072803006e-14
272 286      -2.2435185185185245e+00
272 287       1.0719401234567903e+02
272 288       2.6645352591003757e-15
272 289       1.1217962962962964e+01
272 290       5.4344876543209914e+01
272 291       2.6645352591003757e-15
272 316       5.6087962962962890e-01
272 317       4.0260169753086430e+01
272 318      -3.3653888888888893e+01
272 319      -2.8044907407407416e+00
272 320       2.0317052469135803e+01
272 321      -1.6826944444444443e+01
272 331       1.7763568394002505e-15
272 332      -2.7421543209876543e+01
272 333      -1.2434497875801753e-14
272 334      -5.5511151231257827e-16
272 335      -1.2962901234567898e+01
272 336       2.6645352591003757e-15
272 346      -5.6087962962963001e-01
272 347       4.0260169753086416e+01
272 348       3.3653888888888886e+01
272 349       2.8044907407407411e+00
272 350       2.0317052469135803e+01
272 351       1.6826944444444443e+01
272 385       0.0000000000000000e+00
272 386       0.0000000000000000e+00
272 387       5.5555555555555497e-02
272 388       0.0000000000000000e+00
272 389       0.0000000000000000e+00
272 390       5.5555555555555525e-02
272 394       0.0000000000000000e+00
272 395       0.0000000000000000e+00
272 396       5.5555555555555532e-02
272 397       0.0000000000000000e+00
272 398       0.0000000000000000e+00
272 399       5.5555555555555504e-02
272 412       0.0000000000000000e+00
272 413       0.0000000000000000e+00
272 414       0.0000000000000000e+00
272 415       0.0000000000000000e+00
272 416       0.0000000000000000e+00
272 417       0.0000000000000000e+00
272 421       0.0000000000000000e+00
272 422       0.0000000000000000e+00
272 423       0.0000000000000000e+00
272 424       0.0000000000000000e+00
272 425       0.0000000000000000e+00
272 426       0.0000000000000000e+00
273 273      -3.2507283950617284e+02
273 196       5.6087962962962923e-01
273 197       3.3653888888888886e+01
273 198       4.0260169753086416e+01
273 199      -2.8044907407407407e+00
273 200       1.6826944444444443e+01
273 201       2.0317052469135799e+01
273 211       2.2435185185185178e+00
273 212      -4.4408920985006262e-15
273 213       1.0719401234567906e+02
273 214      -1.1217962962962964e+01
273 215      -1.4210854715202004e-14
273 216       5.4344876543209878e+01
273 226       5.6087962962963056e-01
273 227      -3.3653888888888901e+01
273 228       4.0260169753086423e+01
273 229      -2.8044907407407402e+00
273 230      -1.6826944444444447e+01
273 231       2.0317052469135803e+01
273 256       0.0000000000000000e+00
273 257       0.0000000000000000e+00
273 258      -2.7421543209876546e+01
273 259       0.0000000000000000e+00
273 260      -4.4408920985006262e-16
273 261      -1.2962901234567909e+01
273 271      -1.7763568394002505e-15
273 272       1.4210854715202004e-14
273 274      -2.4424906541753444e-15
273 275       1.7763568394002505e-14
273 276      -1.5954493827160491e+02
273 286       4.4408920985006262e-16
273 287      -4.4408920985006262e-15
273 288      -2.7421543209876539e+01
273 289      -4.4408920985006262e-16
273 290      -2.6645352591003757e-15
273 291      -1.2962901234567887e+01
273 316      -5.6087962962962923e-01
273 317      -3.3653888888888886e+01
273 318       4.0260169753086423e+01
273 319       2.8044907407407411e+00
273 320      -1.6826944444444447e+01
273 321       2.0317052469135803e+01
273 331      -2.2435185185185169e+00
273 332      -1.5987211554602254e-14
273 333       1.0719401234567903e+02
273 334       1.1217962962962968e+01
273 335       8.8817841970012523e-16
273 336       5.4344876543209878e+01
273 346      -5.6087962962963034e-01
273 347       3.3653888888888879e+01
273 348       4.0260169753086416e+01
273 349       2.8044907407407407e+00
273 350       1.6826944444444443e+01
273 351       2.0317052469135799e+01
273 385       0.0000000000000000e+00
273 386       5.5555555555555497e-02
273 387       0.0000000000000000e+00
273 388       0.0000000000000000e+00
273 389       5.5555555555555525e-02
273 390       0.0000000000000000e+00
273 394       0.0000000000000000e+00
273 395       5.5555555555555532e-02
273 396       0.0000000000000000e+00
273 397       0.0000000000000000e+00
273 398       5.5555555555555504e-02
273 399       0.0000000000000000e+00
273 412       0.0000000000000000e+00
273 413       0.0000000000000000e+00
273 414       0.0000000000000000e+00
273 415       0.0000000000000000e+00
273 416       0.0000000000000000e+00
273 417       0.0000000000000000e+00
273 421       0.0000000000000000e+00
273 422       0.0000000000000000e+00
273 423       0.0000000000000000e+00
273 424       0.0000000000000000e+00
273 425       0.0000000000000000e+00
273 426       0.0000000000000000e+00
274 274      -3.0114238683127576e+02
274 196       9.4106995884773639e+00
274 197       2.8044907407407416e+00
274 198       2.8044907407407411e+00
274 199       3.5025267489711936e+01
274 200      -1.9984014443252818e-15
274 201      -1.3322676295501878e-15
274 202       9.4106995884773657e+00
274 203      -2.8044907407407411e+00
274 204      -2.8044907407407411e+00
274 211       1.0719465020576131e+01
274 212       8.8817841970012523e-16
274 213       1.1217962962962964e+01
274 214       3.2407736625514417e+01
274 215       4.4408920985006262e-16
274 216      -2.8865798640254070e-15
274 217       1.0719465020576138e+01
274 218       1.9984014443252818e-15
274 219      -1.1217962962962964e+01
274 226       9.4106995884773639e+00
274 227      -2.8044907407407416e+00
274 228       2.8044907407407416e+00
274 229       3.5025267489711950e+01
274 230      -1.7763568394002505e-15
274 231       1.5543122344752192e-15
274 232       9.4106995884773728e+00
274 233       2.8044907407407411e+00
274 234      -2.8044907407407407e+00
274 256       1.0719465020576138e+01
274 257       1.1217962962962968e+01
274 258      -2.2204460492503131e-16
274 259       3.2407736625514403e+01
274 260      -3.7747582837255322e-15
274 261       1.3322676295501878e-15
274 262       1.0719465020576123e+01
274 263      -1.1217962962962964e+01
274 264       2.2204460492503131e-16
274 271      -6.4815473251028806e+01
274 272       6.2172489379008766e-15
274 273      -2.4424906541753444e-15
274 275      -4.4408920985006262e-15
274 276       1.7763568394002505e-15
274 277      -6.4815473251028848e+01
274 278       4.8849813083506888e-15
274 279       2.2204460492503131e-16
274 286       1.0719465020576122e+01
274 287      -1.1217962962962966e+01
274 288      -5.5511151231257827e-16
274 289       3.2407736625514417e+01
274 290      -7.9936057773011271e-15
274 291       4.4408920985006262e-16
274 292       1.0719465020576141e+01
274 293       1.1217962962962964e+01
274 294       0.0000000000000000e+00
274 316       9.4106995884773692e+00
274 317       2.8044907407407411e+00
274 318      -2.8044907407407411e+00
274 319       3.5025267489711950e+01
274 320      -1.9984014443252818e-15
274 321       3.3306690738754696e-16
274 322       9.4106995884773692e+00
274 323      -2.8044907407407416e+00
274 324       2.8044907407407411e+00
274 331       1.0719465020576132e+01
274 332       2.6645352591003757e-15
274 333      -1.1217962962962964e+01
274 334       3.2407736625514410e+01
274 335      -4.4408920985006262e-16
274 336       3.3306690738754696e-15
274 337       1.0719465020576134e+01
274 338       2.2204460492503131e-16
274 339       1.1217962962962964e+01
274 346       9.4106995884773621e+00
274 347      -2.8044907407407402e+00
274 348      -2.8044907407407411e+00
274 349       3.5025267489711936e+01
274 350      -9.9920072216264089e-16
274 351      -1.8873791418627661e-15
274 352       9.4106995884773692e+00
274 353       2.8044907407407407e+00
274 354       2.8044907407407402e+00
274 412       0.0000000000000000e+00
274 413       0.0000000000000000e+00
274 414       0.0000000000000000e+00
274 415       0.0000000000000000e+00
274 416       0.0000000000000000e+00
274 417       0.0000000000000000e+00
274 421       0.0000000000000000e+00
274 422       0.0000000000000000e+00
274 423       0.0000000000000000e+00
274 424       0.0000000000000000e+00
274 425       0.0000000000000000e+00
274 426       0.0000000000000000e+00
275 275      -6.5014567901234602e+02
275 196       2.8044907407407411e+00
275 197       2.0317052469135803e+01
275 198       1.6826944444444447e+01
275 199      -1.9984014443252818e-15
275 200       8.0520339506172860e+01
275 201       6.7307777777777801e+01
275 202      -2.8044907407407411e+00
275 203       2.0317052469135799e+01
275 204       1.6826944444444450e+01
275 211       6.6613381477509392e-16
275 212      -1.2962901234567894e+01
275 213       0.0000000000000000e+00
275 214       4.4408920985006262e-16
275 215      -5.4843086419753085e+01
275 216      -3.1974423109204508e-14
275 217       2.2204460492503131e-15
275 218      -1.2962901234567902e+01
275 219      -1.5099033134902129e-14
275 226      -2.8044907407407407e+00
275 227       2.0317052469135795e+01
275 228      -1.6826944444444440e+01
275 229      -1.1102230246251565e-15
275 230       8.0520339506172860e+01
275 231      -6.7307777777777787e+01
275 232       2.8044907407407411e+00
275 233       2.0317052469135824e+01
275 234      -1.6826944444444454e+01
275 256       1.1217962962962968e+01
275 257       5.4344876543209907e+01
275 258       0.0000000000000000e+00
275 259      -1.7763568394002505e-15
275 260       2.1438802469135805e+02
275 261      -8.8817841970012523e-15
275 262      -1.1217962962962964e+01
275 263       5.4344876543209878e+01
275 264      -5.3290705182007514e-15
275 271       5.7731597280508140e-15
275 272      -1.5954493827160488e+02
275 273       1.7763568394002505e-14
275 274      -4.4408920985006262e-15
275 276       5.6843418860808015e-14
275 277       7.1054273576010019e-15
275 278      -1.5954493827160499e+02
275 279       7.1054273576010019e-15
275 286      -1.1217962962962964e+01
275 287       5.4344876543209850e+01
275 288       2.6645352591003757e-15
275 289      -1.0214051826551440e-14
275 290       2.1438802469135811e+02
275 291      -2.6645352591003757e-15
275 292       1.1217962962962966e+01
275 293       5.4344876543209949e+01
275 294      -3.5527136788005009e-15
275 316       2.8044907407407416e+00
275 317       2.0317052469135817e+01
275 318      -1.6826944444444447e+01
275 319      -1.8873791418627661e-15
275 320       8.0520339506172888e+01
275 321      -6.7307777777777801e+01
275 322      -2.8044907407407407e+00
275 323       2.0317052469135810e+01
275 324      -1.6826944444444447e+01
275 331       3.4416913763379853e-15
275 332      -1.2962901234567898e+01
275 333      -1.7319479184152442e-14
275 334      -8.8817841970012523e-16
275 335      -5.4843086419753099e+01
275 336      -3.1974423109204508e-14
275 337       1.1102230246251565e-16
275 338      -1.2962901234567909e+01
275 339       3.9968028886505635e-15
275 346      -2.8044907407407407e+00
275 347       2.0317052469135788e+01
275 348       1.6826944444444440e+01
275 349      -9.9920072216264089e-16
275 350       8.0520339506172832e+01
275 351       6.7307777777777787e+01
275 352       2.8044907407407411e+00
275 353       2.0317052469135813e+01
275 354       1.6826944444444457e+01
275 412       0.0000000000000000e+00
275 413       0.0000000000000000e+00
275 414       0.0000000000000000e+00
275 415       0.0000000000000000e+00
275 416       0.0000000000000000e+00
275 417       0.0000000000000000e+00
275 421       0.0000000000000000e+00
275 422       0.0000000000000000e+00
275 423       0.0000000000000000e+00
275 424       0.0000000000000000e+00
275 425       0.0000000000000000e+00
275 426       0.0000000000000000e+00
276 276      -6.5014567901234591e+02
276 196       2.8044907407407411e+00
276 197       1.6826944444444447e+01
276 198       2.0317052469135803e+01
276 199      -8.8817841970012523e-16
276 200       6.7307777777777801e+01
276 201       8.0520339506172860e+01
276 202      -2.8044907407407407e+00
276 203       1.6826944444444454e+01
276 204       2.0317052469135810e+01
276 211       1.1217962962962964e+01
276 212       6.6613381477509392e-15
276 213       5.4344876543209878e+01
276 214      -1.3322676295501878e-15
276 215      -1.4210854715202004e-14
276 216       2.1438802469135811e+02
276 217      -1.1217962962962964e+01
276 218      -1.2878587085651816e-14
276 219       5.4344876543209907e+01
276 226       2.8044907407407416e+00
276 227      -1.6826944444444440e+01
276 228       2.0317052469135803e+01
276 229       1.4432899320127035e-15
276 230      -6.7307777777777801e+01
276 231       8.0520339506172860e+01
276 232      -2.8044907407407398e+00
276 233      -1.6826944444444454e+01
276 234       2.0317052469135810e+01
276 256      -3.3306690738754696e-16
276 257      -4.4408920985006262e-16
276 258      -1.2962901234567894e+01
276 259       8.8817841970012523e-16
276 260      -1.3322676295501878e-14
276 261      -5.4843086419753092e+01
276 262      -4.4408920985006262e-16
276 263      -2.2204460492503131e-15
276 264      -1.2962901234567912e+01
276 271      -4.4408920985006262e-16
276 272       2.1316282072803006e-14
276 273      -1.5954493827160491e+02
276 274       1.7763568394002505e-15
276 275       5.6843418860808015e-14
276 277      -1.1102230246251565e-15
276 278       1.0658141036401503e-14
276 279      -1.5954493827160499e+02
276 286       2.2204460492503131e-16
276 287      -3.1086244689504383e-15
276 288      -1.2962901234567905e+01
276 289       8.8817841970012523e-16
276 290      -5.3290705182007514e-15
276 291      -5.4843086419753057e+01
276 292      -2.2204460492503131e-16
276 293      -2.6645352591003757e-15
276 294      -1.2962901234567894e+01
276 316      -2.8044907407407411e+00
276 317      -1.6826944444444450e+01
276 318       2.0317052469135806e+01
276 319       1.2212453270876722e-15
276 320      -6.7307777777777801e+01
276 321       8.0520339506172860e+01
276 322       2.8044907407407411e+00
276 323      -1.6826944444444450e+01
276 324       2.0317052469135806e+01
276 331      -1.1217962962962964e+01
276 332      -2.0872192862952943e-14
276 333       5.4344876543209878e+01
276 334       5.9952043329758453e-15
276 335      -3.3750779948604759e-14
276 336       2.1438802469135811e+02
276 337       1.1217962962962964e+01
276 338       3.9968028886505635e-15
276 339       5.4344876543209892e+01
276 346      -2.8044907407407411e+00
276 347       1.6826944444444440e+01
276 348       2.0317052469135795e+01
276 349      -1.3322676295501878e-15
276 350       6.7307777777777787e+01
276 351       8.0520339506172846e+01
276 352       2.8044907407407402e+00
276 353       1.6826944444444454e+01
276 354       2.0317052469135810e+01
276 412       0.0000000000000000e+00
276 413       0.0000000000000000e+00
276 414       0.0000000000000000e+00
276 415       0.0000000000000000e+00
276 416       0.0000000000000000e+00
276 417       0.0000000000000000e+00
276 421       0.0000000000000000e+00
276 422       0.0000000000000000e+00
276 423       0.0000000000000000e+00
276 424       0.0000000000000000e+00
276 425       0.0000000000000000e+00
276 426       0.0000000000000000e+00
277 277      -3.0114238683127576e+02
277 199       9.4106995884773710e+00
277 200       2.8044907407407402e+00
277 201       2.8044907407407411e+00
277 202       3.5025267489711943e+01
277 203      -1.3322676295501878e-15
277 204      -9.9920072216264089e-16
277 205       9.4106995884773674e+00
277 206      -2.8044907407407411e+00
277 207      -2.8044907407407420e+00
277 214       1.0719465020576138e+01
277 215       9.9920072216264089e-16
277 216       1.1217962962962964e+01
277 217       3.2407736625514417e+01
277 218       3.1086244689504383e-15
277 219      -4.4408920985006262e-16
277 220       1.0719465020576131e+01
277 221       5.5511151231257827e-16
277 222      -1.1217962962962964e+01
277 229       9.4106995884773692e+00
277 230      -2.8044907407407407e+00
277 231       2.8044907407407411e+00
277 232       3.5025267489711943e+01
277 233      -1.5543122344752192e-15
277 234       2.2204460492503131e-15
277 235       9.4106995884773657e+00
277 236       2.8044907407407402e+00
277 237      -2.8044907407407402e+00
277 259       1.0719465020576138e+01
277 260       1.1217962962962966e+01
277 261      -3.3306690738754696e-16
277 262       3.2407736625514396e+01
277 263      -1.1102230246251565e-15
277 264       0.0000000000000000e+00
277 265       1.0719465020576134e+01
277 266      -1.1217962962962968e+01
277 267       2.2204460492503131e-16
277 274      -6.4815473251028848e+01
277 275       7.1054273576010019e-15
277 276      -1.1102230246251565e-15
277 278       4.4408920985006262e-15
277 279      -5.3290705182007514e-15
277 280      -6.4815473251028806e+01
277 281      -2.2204460492503131e-15
277 282      -1.1102230246251565e-15
277 289       1.0719465020576131e+01
277 290      -1.1217962962962968e+01
277 291      -2.2204460492503131e-16
277 292       3.2407736625514410e+01
277 293      -5.7731597280508140e-15
277 294      -4.4408920985006262e-16
277 295       1.0719465020576125e+01
277 296       1.1217962962962964e+01
277 297      -3.3306690738754696e-16
277 319       9.4106995884773728e+00
277 320       2.8044907407407411e+00
277 321      -2.8044907407407407e+00
277 322       3.5025267489711950e+01
277 323      -1.7763568394002505e-15
277 324       9.9920072216264089e-16
277 325       9.4106995884773692e+00
277 326      -2.8044907407407420e+00
277 327       2.8044907407407416e+00
277 334       1.0719465020576132e+01
277 335       2.8865798640254070e-15
277 336      -1.1217962962962964e+01
277 337       3.2407736625514403e+01
277 338       3.1086244689504383e-15
277 339       5.1070259132757201e-15
277 340       1.0719465020576131e+01
277 341      -1.4432899320127035e-15
277 342       1.1217962962962968e+01
277 349       9.4106995884773657e+00
277 350      -2.8044907407407402e+00
277 351      -2.8044907407407407e+00
277 352       3.5025267489711936e+01
277 353      -8.8817841970012523e-16
277 354      -1.4432899320127035e-15
277 355       9.4106995884773639e+00
277 356       2.8044907407407407e+00
277 357       2.8044907407407407e+00
278 278      -6.5014567901234591e+02
278 199       2.8044907407407402e+00
278 200       2.0317052469135810e+01
278 201       1.6826944444444454e+01
278 202      -1.5543122344752192e-15
278 203       8.0520339506172832e+01
278 204       6.7307777777777773e+01
278 205      -2.8044907407407411e+00
278 206       2.0317052469135795e+01
278 207       1.6826944444444443e+01
278 214       7.7715611723760958e-16
278 215      -1.2962901234567905e+01
278 216       6.6613381477509392e-15
278 217       3.5527136788005009e-15
278 218      -5.4843086419753078e+01
278 219      -3.5527136788005009e-15
278 220       1.1102230246251565e-16
278 221      -1.2962901234567896e+01
278 222       7.5495165674510645e-15
278 229      -2.8044907407407402e+00
278 230       2.0317052469135810e+01
278 231      -1.6826944444444450e+01
278 232      -6.6613381477509392e-16
278 233       8.0520339506172860e+01
278 234      -6.7307777777777787e+01
278 235       2.8044907407407402e+00
278 236       2.0317052469135795e+01
278 237      -1.6826944444444447e+01
278 259       1.1217962962962964e+01
278 260       5.4344876543209935e+01
278 261      -3.5527136788005009e-15
278 262       6.6613381477509392e-16
278 263       2.1438802469135805e+02
278 264       7.1054273576010019e-15
278 265      -1.1217962962962966e+01
278 266       5.4344876543209885e+01
278 267       7.1054273576010019e-15
278 274       4.8849813083506888e-15
278 275      -1.5954493827160499e+02
278 276       1.0658141036401503e-14
278 277       4.4408920985006262e-15
278 279       7.1054273576010019e-15
278 280      -1.5543122344752192e-15
278 281      -1.5954493827160488e+02
278 282       7.1054273576010019e-15
278 289      -1.1217962962962968e+01
278 290       5.4344876543209892e+01
278 291      -3.9968028886505635e-15
278 292      -5.5511151231257827e-15
278 293       2.1438802469135811e+02
278 294       5.3290705182007514e-15
278 295       1.1217962962962961e+01
278 296       5.4344876543209850e+01
278 297       8.8817841970012523e-15
278 319       2.8044907407407407e+00
278 320       2.0317052469135824e+01
278 321      -1.6826944444444450e+01
278 322      -9.9920072216264089e-16
278 323       8.0520339506172888e+01
278 324      -6.7307777777777801e+01
278 325      -2.8044907407407420e+00
278 326       2.0317052469135806e+01
278 327      -1.6826944444444447e+01
278 334       2.7755575615628914e-15
278 335      -1.2962901234567905e+01
278 336      -1.5987211554602254e-14
278 337       1.3322676295501878e-15
278 338      -5.4843086419753099e+01
278 339      -1.3322676295501878e-14
278 340      -1.6653345369377348e-15
278 341      -1.2962901234567902e+01
278 342      -1.1990408665951691e-14
278 349      -2.8044907407407402e+00
278 350       2.0317052469135803e+01
278 351       1.6826944444444450e+01
278 352      -2.2204460492503131e-16
278 353       8.0520339506172832e+01
278 354       6.7307777777777787e+01
278 355       2.8044907407407407e+00
278 356       2.0317052469135788e+01
278 357       1.6826944444444436e+01
279 279      -6.5014567901234591e+02
279 199       2.8044907407407407e+00
279 200       1.6826944444444457e+01
279 201       2.0317052469135813e+01
279 202      -8.8817841970012523e-16
279 203       6.7307777777777787e+01
279 204       8.0520339506172860e+01
279 205      -2.8044907407407411e+00
279 206       1.6826944444444443e+01
279 207       2.0317052469135803e+01
279 214       1.1217962962962964e+01
279 215       5.7731597280508140e-15
279 216       5.4344876543209907e+01
279 217      -1.9984014443252818e-15
279 218      -2.6645352591003757e-15
279 219       2.1438802469135808e+02
279 220      -1.1217962962962964e+01
279 221       5.7731597280508140e-15
279 222       5.4344876543209878e+01
279 229       2.8044907407407411e+00
279 230      -1.6826944444444450e+01
279 231       2.0317052469135806e+01
279 232       1.3322676295501878e-15
279 233      -6.7307777777777801e+01
279 234       8.0520339506172860e+01
279 235      -2.8044907407407398e+00
279 236      -1.6826944444444443e+01
279 237       2.0317052469135799e+01
279 259       1.1102230246251565e-16
279 260      -1.7763568394002505e-15
279 261      -1.2962901234567902e+01
279 262      -4.4408920985006262e-16
279 263       7.1054273576010019e-15
279 264      -5.4843086419753092e+01
279 265       2.2204460492503131e-16
279 266       5.3290705182007514e-15
279 267      -1.2962901234567894e+01
279 274       2.2204460492503131e-16
279 275       7.1054273576010019e-15
279 276      -1.5954493827160499e+02
279 277      -5.3290705182007514e-15
279 278       7.1054273576010019e-15
279 280       1.3322676295501878e-15
279 281       3.5527136788005009e-15
279 282      -1.5954493827160491e+02
279 289       2.2204460492503131e-16
279 290      -1.7763568394002505e-15
279 291      -1.2962901234567909e+01
279 292       8.8817841970012523e-16
279 293       1.8651746813702630e-14
279 294      -5.4843086419753071e+01
279 295       0.0000000000000000e+00
279 296       1.1102230246251565e-14
279 297      -1.2962901234567898e+01
279 319      -2.8044907407407407e+00
279 320      -1.6826944444444454e+01
279 321       2.0317052469135810e+01
279 322       7.7715611723760958e-16
279 323      -6.7307777777777801e+01
279 324       8.0520339506172860e+01
279 325       2.8044907407407420e+00
279 326      -1.6826944444444447e+01
279 327       2.0317052469135803e+01
279 334      -1.1217962962962964e+01
279 335      -1.8207657603852567e-14
279 336       5.4344876543209892e+01
279 337       4.6629367034256575e-15
279 338      -3.0198066269804258e-14
279 339       2.1438802469135808e+02
279 340       1.1217962962962966e+01
279 341      -1.0214051826551440e-14
279 342       5.4344876543209878e+01
279 349      -2.8044907407407416e+00
279 350       1.6826944444444447e+01
279 351       2.0317052469135810e+01
279 352      -1.3322676295501878e-15
279 353       6.7307777777777773e+01
279 354       8.0520339506172846e+01
279 355       2.8044907407407407e+00
279 356       1.6826944444444436e+01
279 357       2.0317052469135799e+01
280 280      -3.0114238683127564e+02
280 202       9.4106995884773639e+00
280 203       2.8044907407407407e+00
280 204       2.8044907407407407e+00
280 205       3.5025267489711936e+01
280 206      -1.2212453270876722e-15
280 207      -5.5511151231257827e-16
280 208       9.4106995884773674e+00
280 209      -2.8044907407407411e+00
280 210      -2.8044907407407411e+00
280 217       1.0719465020576131e+01
280 218      -1.1102230246251565e-15
280 219       1.1217962962962961e+01
280 220       3.2407736625514403e+01
280 221       5.7731597280508140e-15
280 222      -3.3306690738754696e-15
280 223       1.0719465020576132e+01
280 224       1.1102230246251565e-16
280 225      -1.1217962962962964e+01
280 232       9.4106995884773692e+00
280 233      -2.8044907407407411e+00
280 234       2.8044907407407411e+00
280 235       3.5025267489711943e+01
280 236      -2.2204460492503131e-16
280 237       1.5543122344752192e-15
280 238       9.4106995884773639e+00
280 239       2.8044907407407402e+00
280 240      -2.8044907407407407e+00
280 262       1.0719465020576122e+01
280 263       1.1217962962962964e+01
280 264       1.1102230246251565e-16
280 265       3.2407736625514396e+01
280 266       2.2204460492503131e-15
280 267      -4.4408920985006262e-16
280 268       1.0719465020576141e+01
280 269      -1.1217962962962968e+01
280 270       1.1102230246251565e-16
280 277      -6.4815473251028806e+01
280 278      -1.5543122344752192e-15
280 279       1.3322676295501878e-15
280 281       1.0658141036401503e-14
280 282       2.6645352591003757e-15
280 283      -6.4815473251028806e+01
280 284      -3.1086244689504383e-15
280 285      -6.6613381477509392e-16
280 292       1.0719465020576139e+01
280 293      -1.1217962962962968e+01
280 294       2.2204460492503131e-16
280 295       3.2407736625514396e+01
280 296      -3.3306690738754696e-15
280 297       4.4408920985006262e-16
280 298       1.0719465020576120e+01
280 299       1.1217962962962963e+01
280 300       1.1102230246251565e-16
280 322       9.4106995884773674e+00
280 323       2.8044907407407411e+00
280 324      -2.8044907407407411e+00
280 325       3.5025267489711950e+01
280 326      -1.1102230246251565e-15
280 327       5.5511151231257827e-16
280 328       9.4106995884773710e+00
280 329      -2.8044907407407420e+00
280 330       2.8044907407407411e+00
280 337       1.0719465020576131e+01
280 338       1.1102230246251565e-15
280 339      -1.1217962962962966e+01
280 340       3.2407736625514389e+01
280 341       4.8849813083506888e-15
280 342       1.5543122344752192e-15
280 343       1.0719465020576131e+01
280 344      -1.8873791418627661e-15
280 345       1.1217962962962966e+01
280 352       9.4106995884773674e+00
280 353      -2.8044907407407411e+00
280 354      -2.8044907407407411e+00
280 355       3.5025267489711929e+01
280 356      -3.3306690738754696e-16
280 357      -1.6653345369377348e-15
280 358       9.4106995884773603e+00
280 359       2.8044907407407402e+00
280 360       2.8044907407407402e+00
281 281      -6.5014567901234579e+02
281 202       2.8044907407407407e+00
281 203       2.0317052469135788e+01
281 204       1.6826944444444443e+01
281 205      -1.5543122344752192e-15
281 206       8.0520339506172832e+01
281 207       6.7307777777777773e+01
281 208      -2.8044907407407416e+00
281 209       2.0317052469135806e+01
281 210       1.6826944444444447e+01
281 217      -1.1102230246251565e-15
281 218      -1.2962901234567894e+01
281 219      -3.9968028886505635e-15
281 220       4.8849813083506888e-15
281 221      -5.4843086419753078e+01
281 222       8.8817841970012523e-16
281 223      -2.2204460492503131e-16
281 224      -1.2962901234567898e+01
281 225       7.1054273576010019e-15
281 232      -2.8044907407407411e+00
281 233       2.0317052469135803e+01
281 234      -1.6826944444444447e+01
281 235       0.0000000000000000e+00
281 236       8.0520339506172846e+01
281 237      -6.7307777777777773e+01
281 238       2.8044907407407402e+00
281 239       2.0317052469135792e+01
281 240      -1.6826944444444443e+01
281 262       1.1217962962962964e+01
281 263       5.4344876543209850e+01
281 264       5.3290705182007514e-15
281 265       2.8865798640254070e-15
281 266       2.1438802469135800e+02
281 267       1.4210854715202004e-14
281 268      -1.1217962962962966e+01
281 269       5.4344876543209907e+01
281 270       5.3290705182007514e-15
281 277      -2.2204460492503131e-15
281 278      -1.5954493827160488e+02
281 279       3.5527136788005009e-15
281 280       1.0658141036401503e-14
281 282       2.8421709430404007e-14
281 283      -3.7747582837255322e-15
281 284      -1.5954493827160491e+02
281 285       1.0658141036401503e-14
281 292      -1.1217962962962968e+01
281 293       5.4344876543209892e+01
281 294       9.3258734068513149e-15
281 295      -4.6629367034256575e-15
281 296       2.1438802469135805e+02
281 297       1.9539925233402755e-14
281 298       1.1217962962962963e+01
281 299       5.4344876543209850e+01
281 300       4.4408920985006262e-16
281 322       2.8044907407407411e+00
281 323       2.0317052469135795e+01
281 324      -1.6826944444444443e+01
281 325      -7.7715611723760958e-16
281 326       8.0520339506172860e+01
281 327      -6.7307777777777801e+01
281 328      -2.8044907407407416e+00
281 329       2.0317052469135817e+01
281 330      -1.6826944444444454e+01
281 337       1.4432899320127035e-15
281 338      -1.2962901234567900e+01
281 339       8.8817841970012523e-16
281 340       3.9968028886505635e-15
281 341      -5.4843086419753092e+01
281 342      -1.2434497875801753e-14
281 343      -2.4424906541753444e-15
281 344      -1.2962901234567902e+01
281 345      -1.7319479184152442e-14
281 352      -2.8044907407407407e+00
281 353       2.0317052469135795e+01
281 354       1.6826944444444436e+01
281 355       2.2204460492503131e-16
281 356       8.0520339506172803e+01
281 357       6.7307777777777744e+01
281 358       2.8044907407407398e+00
281 359       2.0317052469135788e+01
281 360       1.6826944444444436e+01
282 282      -6.5014567901234568e+02
282 202       2.8044907407407411e+00
282 203       1.6826944444444440e+01
282 204       2.0317052469135799e+01
282 205      -6.6613381477509392e-16
282 206       6.7307777777777773e+01
282 207       8.0520339506172832e+01
282 208      -2.8044907407407407e+00
282 209       1.6826944444444447e+01
282 210       2.0317052469135803e+01
282 217       1.1217962962962964e+01
282 218      -8.4376949871511897e-15
282 219       5.4344876543209878e+01
282 220      -3.9968028886505635e-15
282 221       6.2172489379008766e-15
282 222       2.1438802469135805e+02
282 223      -1.1217962962962964e+01
282 224       1.2434497875801753e-14
282 225       5.4344876543209878e+01
282 232       2.8044907407407411e+00
282 233      -1.6826944444444447e+01
282 234       2.0317052469135799e+01
282 235       1.2212453270876722e-15
282 236      -6.7307777777777787e+01
282 237       8.0520339506172832e+01
282 238      -2.8044907407407398e+00
282 239      -1.6826944444444443e+01
282 240       2.0317052469135799e+01
282 262       1.1102230246251565e-16
282 263       6.6613381477509392e-15
282 264      -1.2962901234567907e+01
282 265      -4.4408920985006262e-16
282 266       7.1054273576010019e-15
282 267      -5.4843086419753085e+01
282 268       4.4408920985006262e-16
282 269      -1.7763568394002505e-15
282 270      -1.2962901234567889e+01
282 277      -1.1102230246251565e-15
282 278       7.1054273576010019e-15
282 279      -1.5954493827160491e+02
282 280       2.6645352591003757e-15
282 281       2.8421709430404007e-14
282 283      -4.4408920985006262e-16
282 284       7.1054273576010019e-15
282 285      -1.5954493827160493e+02
282 292       0.0000000000000000e+00
282 293       1.0214051826551440e-14
282 294      -1.2962901234567887e+01
282 295       0.0000000000000000e+00
282 296       2.3980817331903381e-14
282 297      -5.4843086419753050e+01
282 298       2.2204460492503131e-16
282 299       1.7763568394002505e-15
282 300      -1.2962901234567903e+01
282 322      -2.8044907407407411e+00
282 323      -1.6826944444444443e+01
282 324       2.0317052469135803e+01
282 325       5.5511151231257827e-16
282 326      -6.7307777777777773e+01
282 327       8.0520339506172860e+01
282 328       2.8044907407407416e+00
282 329      -1.6826944444444450e+01
282 330       2.0317052469135806e+01
282 337      -1.1217962962962964e+01
282 338       1.3322676295501878e-15
282 339       5.4344876543209878e+01
282 340       1.9984014443252818e-15
282 341      -2.2204460492503131e-14
282 342       2.1438802469135800e+02
282 343       1.1217962962962968e+01
282 344      -1.8207657603852567e-14
282 345       5.4344876543209871e+01
282 352      -2.8044907407407411e+00
282 353       1.6826944444444440e+01
282 354       2.0317052469135799e+01
282 355      -1.6653345369377348e-15
282 356       6.7307777777777744e+01
282 357       8.0520339506172832e+01
282 358       2.8044907407407402e+00
282 359       1.6826944444444440e+01
282 360       2.0317052469135795e+01
283 283      -1.5057119341563788e+02
283 205       9.4106995884773621e+00
283 206       2.8044907407407402e+00
283 207       2.8044907407407411e+00
283 208       1.7512633744855968e+01
283 209       5.6087962962962878e-01
283 210       5.6087962962962934e-01
283 220       1.0719465020576131e+01
283 221      -1.7763568394002505e-15
283 222       1.1217962962962964e+01
283 223       1.6203868312757201e+01
283 224       1.7763568394002505e-15
283 225       2.2435185185185187e+00
283 235       9.4106995884773692e+00
283 236      -2.8044907407407411e+00
283 237       2.8044907407407411e+00
283 238       1.7512633744855968e+01
283 239      -5.6087962962963001e-01
283 240       5.6087962962963056e-01
283 265       1.0719465020576123e+01
283 266       1.1217962962962964e+01
283 267      -2.2204460492503131e-16
283 268       1.6203868312757194e+01
283 269       2.2435185185185196e+00
283 270       4.4408920985006262e-16
283 280      -6.4815473251028806e+01
283 281      -3.7747582837255322e-15
283 282      -4.4408920985006262e-16
283 284       8.8817841970012523e-15
283 285       1.7763568394002505e-15
283 295       1.0719465020576143e+01
283 296      -1.1217962962962968e+01
283 297       1.1102230246251565e-16
283 298       1.6203868312757205e+01
283 299      -2.2435185185185214e+00
283 300       4.4408920985006262e-16
283 325       9.4106995884773657e+00
283 326       2.8044907407407407e+00
283 327      -2.8044907407407407e+00
283 328       1.7512633744855972e+01
283 329       5.6087962962962901e-01
283 330      -5.6087962962962934e-01
283 340       1.0719465020576131e+01
283 341       5.5511151231257827e-16
283 342      -1.1217962962962964e+01
283 343       1.6203868312757198e+01
283 344       1.3322676295501878e-15
283 345      -2.2435185185185165e+00
283 355       9.4106995884773657e+00
283 356      -2.8044907407407411e+00
283 357      -2.8044907407407411e+00
283 358       1.7512633744855961e+01
283 359      -5.6087962962963012e-01
283 360      -5.6087962962963034e-01
284 284      -3.2507283950617290e+02
284 205       2.8044907407407402e+00
284 206       2.0317052469135792e+01
284 207       1.6826944444444443e+01
284 208      -5.6087962962963067e-01
284 209       4.0260169753086416e+01
284 210       3.3653888888888893e+01
284 220      -1.2212453270876722e-15
284 221      -1.2962901234567898e+01
284 222      -1.2878587085651816e-14
284 223       2.2204460492503131e-15
284 224      -2.7421543209876543e+01
284 225      -5.3290705182007514e-15
284 235      -2.8044907407407407e+00
284 236       2.0317052469135810e+01
284 237      -1.6826944444444447e+01
284 238       5.6087962962962945e-01
284 239       4.0260169753086430e+01
284 240      -3.3653888888888886e+01
284 265       1.1217962962962964e+01
284 266       5.4344876543209850e+01
284 267       3.5527136788005009e-15
284 268      -2.2435185185185187e+00
284 269       1.0719401234567903e+02
284 270       7.1054273576010019e-15
284 280      -3.1086244689504383e-15
284 281      -1.5954493827160491e+02
284 282       7.1054273576010019e-15
284 283       8.8817841970012523e-15
284 285       2.1316282072803006e-14
284 295      -1.1217962962962968e+01
284 296       5.4344876543209921e+01
284 297       1.3322676295501878e-15
284 298       2.2435185185185156e+00
284 299       1.0719401234567903e+02
284 300       8.8817841970012523e-16
284 325       2.8044907407407407e+00
284 326       2.0317052469135803e+01
284 327      -1.6826944444444447e+01
284 328      -5.6087962962963056e-01
284 329       4.0260169753086437e+01
284 330      -3.3653888888888901e+01
284 340       1.4432899320127035e-15
284 341      -1.2962901234567902e+01
284 342       7.5495165674510645e-15
284 343       4.4408920985006262e-16
284 344      -2.7421543209876550e+01
284 345      -5.3290705182007514e-15
284 355      -2.8044907407407407e+00
284 356       2.0317052469135803e+01
284 357       1.6826944444444443e+01
284 358       5.6087962962962901e-01
284 359       4.0260169753086409e+01
284 360       3.3653888888888886e+01
285 285      -3.2507283950617284e+02
285 205       2.8044907407407407e+00
285 206       1.6826944444444440e+01
285 207       2.0317052469135799e+01
285 208      -5.6087962962962989e-01
285 209       3.3653888888888893e+01
285 210       4.0260169753086423e+01
285 220       1.1217962962962963e+01
285 221      -1.2434497875801753e-14
285 222       5.4344876543209878e+01
285 223      -2.2435185185185178e+00
285 224       1.0658141036401503e-14
285 225       1.0719401234567900e+02
285 235       2.8044907407407411e+00
285 236      -1.6826944444444450e+01
285 237       2.0317052469135803e+01
285 238      -5.6087962962962901e-01
285 239      -3.3653888888888893e+01
285 240       4.0260169753086423e+01
285 265      -2.2204460492503131e-16
285 266       4.4408920985006262e-16
285 267      -1.2962901234567910e+01
285 268       4.4408920985006262e-16
285 269      -3.5527136788005009e-15
285 270      -2.7421543209876546e+01
285 280      -6.6613381477509392e-16
285 281       1.0658141036401503e-14
285 282      -1.5954493827160493e+02
285 283       1.7763568394002505e-15
285 284       2.1316282072803006e-14
285 295       0.0000000000000000e+00
285 296       5.7731597280508140e-15
285 297      -1.2962901234567882e+01
285 298       4.4408920985006262e-16
285 299       7.1054273576010019e-15
285 300      -2.7421543209876525e+01
285 325      -2.8044907407407411e+00
285 326      -1.6826944444444447e+01
285 327       2.0317052469135803e+01
285 328       5.6087962962963023e-01
285 329      -3.3653888888888886e+01
285 330       4.0260169753086430e+01
285 340      -1.1217962962962964e+01
285 341       4.4408920985006262e-15
285 342       5.4344876543209871e+01
285 343       2.2435185185185214e+00
285 344      -1.0658141036401503e-14
285 345       1.0719401234567900e+02
285 355      -2.8044907407407411e+00
285 356       1.6826944444444443e+01
285 357       2.0317052469135799e+01
285 358       5.6087962962962890e-01
285 359       3.3653888888888886e+01
285 360       4.0260169753086409e+01
286 286      -1.5057119341563785e+02
286 211       1.7512633744855968e+01
286 212      -5.6087962962963167e-01
286 213      -5.6087962962963156e-01
286 214       9.4106995884773621e+00
286 215      -2.8044907407407411e+00
286 216      -2.8044907407407420e+00
286 226       1.6203868312757201e+01
286 227       8.8817841970012523e-16
286 228      -2.2435185185185222e+00
286 229       1.0719465020576132e+01
286 230       2.8865798640254070e-15
286 231      -1.1217962962962964e+01
286 241       1.7512633744855972e+01
286 242       5.6087962962963034e-01
286 243      -5.6087962962962978e-01
286 244       9.4106995884773674e+00
286 245       2.8044907407407411e+00
286 246      -2.8044907407407411e+00
286 271       1.6203868312757198e+01
286 272      -2.2435185185185245e+00
286 273       4.4408920985006262e-16
286 274       1.0719465020576122e+01
286 275      -1.1217962962962964e+01
286 276       2.2204460492503131e-16
286 287      -3.5527136788005009e-15
286 288      -8.8817841970012523e-16
286 289      -6.4815473251028806e+01
286 290       7.7715611723760958e-15
286 291      -2.2204460492503131e-16
286 301       1.6203868312757205e+01
286 302       2.2435185185185178e+00
286 303       4.4408920985006262e-16
286 304       1.0719465020576138e+01
286 305       1.1217962962962964e+01
286 306       0.0000000000000000e+00
286 331       1.7512633744855975e+01
286 332      -5.6087962962963145e-01
286 333       5.6087962962963078e-01
286 334       9.4106995884773657e+00
286 335      -2.8044907407407416e+00
286 336       2.8044907407407416e+00
286 346       1.6203868312757198e+01
286 347       1.3322676295501878e-15
286 348       2.2435185185185200e+00
286 349       1.0719465020576131e+01
286 350       5.5511151231257827e-16
286 351       1.1217962962962964e+01
286 361       1.7512633744855968e+01
286 362       5.6087962962962978e-01
286 363       5.6087962962962978e-01
286 364       9.4106995884773639e+00
286 365       2.8044907407407411e+00
286 366       2.8044907407407411e+00
286 388      -5.5555555555555504e-02
286 389       0.0000000000000000e+00
286 390       0.0000000000000000e+00
286 391      -5.5555555555555559e-02
286 392       0.0000000000000000e+00
286 393       0.0000000000000000e+00
286 397      -5.5555555555555469e-02
286 398       0.0000000000000000e+00
286 399       0.0000000000000000e+00
286 400      -5.5555555555555469e-02
286 401       0.0000000000000000e+00
286 402       0.0000000000000000e+00
286 415       0.0000000000000000e+00
286 416       0.0000000000000000e+00
286 417       0.0000000000000000e+00
286 418       0.0000000000000000e+00
286 419       0.0000000000000000e+00
286 420       0.0000000000000000e+00
286 424       0.0000000000000000e+00
286 425       0.0000000000000000e+00
286 426       0.0000000000000000e+00
286 427       0.0000000000000000e+00
286 428       0.0000000000000000e+00
286 429       0.0000000000000000e+00
287 287      -3.2507283950617295e+02
287 211       5.6087962962962779e-01
287 212       4.0260169753086409e+01
287 213       3.3653888888888886e+01
287 214      -2.8044907407407411e+00
287 215       2.0317052469135792e+01
287 216       1.6826944444444443e+01
287 226       4.4408920985006262e-16
287 227      -2.7421543209876539e+01
287 228      -1.2434497875801753e-14
287 229       2.2204460492503131e-15
287 230      -1.2962901234567898e+01
287 231      -1.5987211554602254e-14
287 241      -5.6087962962962878e-01
287 242       4.0260169753086416e+01
287 243      -3.3653888888888879e+01
287 244       2.8044907407407411e+00
287 245       2.0317052469135810e+01
287 246      -1.6826944444444447e+01
287 271       2.2435185185185142e+00
287 272       1.0719401234567903e+02
287 273      -4.4408920985006262e-15
287 274      -1.1217962962962966e+01
287 275       5.4344876543209850e+01
287 276      -3.1086244689504383e-15
287 286      -3.5527136788005009e-15
287 288       2.8421709430404007e-14
287 289       7.3274719625260332e-15
287 290      -1.5954493827160488e+02
287 291       1.4210854715202004e-14
287 301      -2.2435185185185196e+00
287 302       1.0719401234567904e+02
287 303      -3.5527136788005009e-15
287 304       1.1217962962962966e+01
287 305       5.4344876543209907e+01
287 306      -1.3322676295501878e-15
287 331       5.6087962962962823e-01
287 332       4.0260169753086430e+01
287 333      -3.3653888888888893e+01
287 334      -2.8044907407407416e+00
287 335       2.0317052469135803e+01
287 336      -1.6826944444444440e+01
287 346       8.8817841970012523e-16
287 347      -2.7421543209876546e+01
287 348      -9.7699626167013776e-15
287 349       1.1102230246251565e-16
287 350      -1.2962901234567902e+01
287 351       4.4408920985006262e-15
287 361      -5.6087962962962923e-01
287 362       4.0260169753086402e+01
287 363       3.3653888888888886e+01
287 364       2.8044907407407411e+00
287 365       2.0317052469135803e+01
287 366       1.6826944444444443e+01
287 388       0.0000000000000000e+00
287 389       0.0000000000000000e+00
287 390       5.5555555555555504e-02
287 391       0.0000000000000000e+00
287 392       0.0000000000000000e+00
287 393       5.5555555555555559e-02
287 397       0.0000000000000000e+00
287 398       0.0000000000000000e+00
287 399       5.5555555555555469e-02
287 400       0.0000000000000000e+00
287 401       0.0000000000000000e+00
287 402       5.5555555555555469e-02
287 415       0.0000000000000000e+00
287 416       0.0000000000000000e+00
287 417       0.0000000000000000e+00
287 418       0.0000000000000000e+00
287 419       0.0000000000000000e+00
287 420       0.0000000000000000e+00
287 424       0.0000000000000000e+00
287 425       0.0000000000000000e+00
287 426       0.0000000000000000e+00
287 427       0.0000000000000000e+00
287 428       0.0000000000000000e+00
287 429       0.0000000000000000e+00
288 288      -3.2507283950617284e+02
288 211       5.6087962962962790e-01
288 212       3.3653888888888886e+01
288 213       4.0260169753086416e+01
288 214      -2.8044907407407416e+00
288 215       1.6826944444444440e+01
288 216       2.0317052469135795e+01
288 226       2.2435185185185187e+00
288 227      -4.4408920985006262e-15
288 228       1.0719401234567903e+02
288 229      -1.1217962962962964e+01
288 230      -1.1990408665951691e-14
288 231       5.4344876543209878e+01
288 241       5.6087962962962934e-01
288 242      -3.3653888888888886e+01
288 243       4.0260169753086416e+01
288 244      -2.8044907407407411e+00
288 245      -1.6826944444444447e+01
288 246       2.0317052469135803e+01
288 271       8.8817841970012523e-16
288 272       2.6645352591003757e-15
288 273      -2.7421543209876539e+01
288 274      -5.5511151231257827e-16
288 275       2.6645352591003757e-15
288 276      -1.2962901234567905e+01
288 286      -8.8817841970012523e-16
288 287       2.8421709430404007e-14
288 289      -1.9984014443252818e-15
288 290       3.5527136788005009e-15
288 291      -1.5954493827160491e+02
288 301       4.4408920985006262e-16
288 302      -4.4408920985006262e-15
288 303      -2.7421543209876521e+01
288 304       1.1102230246251565e-16
288 305      -8.8817841970012523e-16
288 306      -1.2962901234567891e+01
288 331      -5.6087962962962812e-01
288 332      -3.3653888888888886e+01
288 333       4.0260169753086416e+01
288 334       2.8044907407407420e+00
288 335      -1.6826944444444443e+01
288 336       2.0317052469135799e+01
288 346      -2.2435185185185178e+00
288 347      -1.5099033134902129e-14
288 348       1.0719401234567900e+02
288 349       1.1217962962962966e+01
288 350      -8.8817841970012523e-16
288 351       5.4344876543209864e+01
288 361      -5.6087962962962923e-01
288 362       3.3653888888888886e+01
288 363       4.0260169753086416e+01
288 364       2.8044907407407407e+00
288 365       1.6826944444444443e+01
288 366       2.0317052469135799e+01
288 388       0.0000000000000000e+00
288 389       5.5555555555555504e-02
288 390       0.0000000000000000e+00
288 391       0.0000000000000000e+00
288 392       5.5555555555555559e-02
288 393       0.0000000000000000e+00
288 397       0.0000000000000000e+00
288 398       5.5555555555555469e-02
288 399       0.0000000000000000e+00
288 400       0.0000000000000000e+00
288 401       5.5555555555555469e-02
288 402       0.0000000000000000e+00
288 415       0.0000000000000000e+00
288 416       0.0000000000000000e+00
288 417       0.0000000000000000e+00
288 418       0.0000000000000000e+00
288 419       0.0000000000000000e+00
288 420       0.0000000000000000e+00
288 424       0.0000000000000000e+00
288 425       0.0000000000000000e+00
288 426       0.0000000000000000e+00
288 427       0.0000000000000000e+00
288 428       0.0000000000000000e+00
288 429       0.0000000000000000e+00
289 289      -3.0114238683127576e+02
289 211       9.4106995884773657e+00
289 212       2.8044907407407411e+00
289 213       2.8044907407407407e+00
289 214       3.5025267489711936e+01
289 215      -3.3306690738754696e-15
289 216      -3.4416913763379853e-15
289 217       9.4106995884773657e+00
289 218      -2.8044907407407411e+00
289 219      -2.8044907407407420e+00
289 226       1.0719465020576132e+01
289 227       1.2212453270876722e-15
289 228       1.1217962962962964e+01
289 229       3.2407736625514417e+01
289 230      -4.4408920985006262e-16
289 231      -5.7731597280508140e-15
289 232       1.0719465020576134e+01
289 233       2.7755575615628914e-15
289 234      -1.1217962962962964e+01
289 241       9.4106995884773639e+00
289 242      -2.8044907407407411e+00
289 243       2.8044907407407411e+00
289 244       3.5025267489711950e+01
289 245       1.1102230246251565e-16
289 246      -9.9920072216264089e-16
289 247       9.4106995884773745e+00
289 248       2.8044907407407411e+00
289 249      -2.8044907407407411e+00
289 271       1.0719465020576138e+01
289 272       1.1217962962962964e+01
289 273      -4.4408920985006262e-16
289 274       3.2407736625514417e+01
289 275      -1.0214051826551440e-14
289 276       8.8817841970012523e-16
289 277       1.0719465020576131e+01
289 278      -1.1217962962962968e+01
289 279       2.2204460492503131e-16
289 286      -6.4815473251028806e+01
289 287       7.3274719625260332e-15
289 288      -1.9984014443252818e-15
289 290      -4.4408920985006262e-15
289 291       2.6645352591003757e-15
289 292      -6.4815473251028862e+01
289 293       6.6613381477509392e-15
289 294      -4.4408920985006262e-16
289 301       1.0719465020576123e+01
289 302      -1.1217962962962964e+01
289 303       0.0000000000000000e+00
289 304       3.2407736625514410e+01
289 305      -6.6613381477509392e-16
289 306       2.6645352591003757e-15
289 307       1.0719465020576141e+01
289 308       1.1217962962962966e+01
289 309       2.2204460492503131e-16
289 331       9.4106995884773692e+00
289 332       2.8044907407407411e+00
289 333      -2.8044907407407389e+00
289 334       3.5025267489711950e+01
289 335      -3.8857805861880479e-15
289 336       2.9976021664879227e-15
289 337       9.4106995884773692e+00
289 338      -2.8044907407407420e+00
289 339       2.8044907407407411e+00
289 346       1.0719465020576129e+01
289 347       3.1086244689504383e-15
289 348      -1.1217962962962964e+01
289 349       3.2407736625514396e+01
289 350       2.2204460492503131e-15
289 351       3.7747582837255322e-15
289 352       1.0719465020576134e+01
289 353       9.9920072216264089e-16
289 354       1.1217962962962964e+01
289 361       9.4106995884773621e+00
289 362      -2.8044907407407402e+00
289 363      -2.8044907407407407e+00
289 364       3.5025267489711936e+01
289 365       4.4408920985006262e-16
289 366       0.0000000000000000e+00
289 367       9.4106995884773692e+00
289 368       2.8044907407407411e+00
289 369       2.8044907407407411e+00
289 415       0.0000000000000000e+00
289 416       0.0000000000000000e+00
289 417       0.0000000000000000e+00
289 418       0.0000000000000000e+00
289 419       0.0000000000000000e+00
289 420       0.0000000000000000e+00
289 424       0.0000000000000000e+00
289 425       0.0000000000000000e+00
289 426       0.0000000000000000e+00
289 427       0.0000000000000000e+00
289 428       0.0000000000000000e+00
289 429       0.0000000000000000e+00
290 290      -6.5014567901234602e+02
290 211       2.8044907407407402e+00
290 212       2.0317052469135803e+01
290 213       1.6826944444444447e+01
290 214      -3.7747582837255322e-15
290 215       8.0520339506172846e+01
290 216       6.7307777777777801e+01
290 217      -2.8044907407407416e+00
290 218       2.0317052469135803e+01
290 219       1.6826944444444450e+01
290 226       1.8873791418627661e-15
290 227      -1.2962901234567898e+01
290 228       3.5527136788005009e-15
290 229       0.0000000000000000e+00
290 230      -5.4843086419753092e+01
290 231      -2.5757174171303632e-14
290 232       1.9984014443252818e-15
290 233      -1.2962901234567909e+01
290 234      -1.4210854715202004e-14
290 241      -2.8044907407407407e+00
290 242       2.0317052469135795e+01
290 243      -1.6826944444444440e+01
290 244      -2.2204460492503131e-16
290 245       8.0520339506172874e+01
290 246      -6.7307777777777801e+01
290 247       2.8044907407407411e+00
290 248       2.0317052469135824e+01
290 249      -1.6826944444444457e+01
290 271       1.1217962962962964e+01
290 272       5.4344876543209914e+01
290 273      -2.6645352591003757e-15
290 274      -7.9936057773011271e-15
290 275       2.1438802469135811e+02
290 276      -5.3290705182007514e-15
290 277      -1.1217962962962968e+01
290 278       5.4344876543209892e+01
290 279      -1.7763568394002505e-15
290 286       7.7715611723760958e-15
290 287      -1.5954493827160488e+02
290 288       3.5527136788005009e-15
290 289      -4.4408920985006262e-15
290 291       7.1054273576010019e-14
290 292       6.8833827526759706e-15
290 293      -1.5954493827160499e+02
290 294       1.4210854715202004e-14
290 301      -1.1217962962962964e+01
290 302       5.4344876543209850e+01
290 303       0.0000000000000000e+00
290 304      -5.5511151231257827e-15
290 305       2.1438802469135814e+02
290 306      -1.1546319456101628e-14
290 307       1.1217962962962968e+01
290 308       5.4344876543209942e+01
290 309      -8.8817841970012523e-16
290 331       2.8044907407407402e+00
290 332       2.0317052469135813e+01
290 333      -1.6826944444444447e+01
290 334      -3.6637359812630166e-15
290 335       8.0520339506172888e+01
290 336      -6.7307777777777801e+01
290 337      -2.8044907407407420e+00
290 338       2.0317052469135817e+01
290 339      -1.6826944444444450e+01
290 346       3.3306690738754696e-15
290 347      -1.2962901234567900e+01
290 348      -1.5987211554602254e-14
290 349      -4.4408920985006262e-16
290 350      -5.4843086419753121e+01
290 351      -2.7533531010703882e-14
290 352       3.3306690738754696e-16
290 353      -1.2962901234567912e+01
290 354      -1.3322676295501878e-15
290 361      -2.8044907407407407e+00
290 362       2.0317052469135788e+01
290 363       1.6826944444444440e+01
290 364       7.7715611723760958e-16
290 365       8.0520339506172832e+01
290 366       6.7307777777777801e+01
290 367       2.8044907407407416e+00
290 368       2.0317052469135813e+01
290 369       1.6826944444444457e+01
290 415       0.0000000000000000e+00
290 416       0.0000000000000000e+00
290 417       0.0000000000000000e+00
290 418       0.0000000000000000e+00
290 419       0.0000000000000000e+00
290 420       0.0000000000000000e+00
290 424       0.0000000000000000e+00
290 425       0.0000000000000000e+00
290 426       0.0000000000000000e+00
290 427       0.0000000000000000e+00
290 428       0.0000000000000000e+00
290 429       0.0000000000000000e+00
291 291      -6.5014567901234591e+02
291 211       2.8044907407407402e+00
291 212       1.6826944444444447e+01
291 213       2.0317052469135803e+01
291 214      -4.1078251911130792e-15
291 215       6.7307777777777801e+01
291 216       8.0520339506172846e+01
291 217      -2.8044907407407407e+00
291 218       1.6826944444444454e+01
291 219       2.0317052469135806e+01
291 226       1.1217962962962964e+01
291 227       6.2172489379008766e-15
291 228       5.4344876543209878e+01
291 229      -2.6645352591003757e-15
291 230      -1.5987211554602254e-14
291 231       2.1438802469135808e+02
291 232      -1.1217962962962964e+01
291 233      -1.3322676295501878e-14
291 234       5.4344876543209899e+01
291 241       2.8044907407407407e+00
291 242      -1.6826944444444440e+01
291 243       2.0317052469135795e+01
291 244      -8.8817841970012523e-16
291 245      -6.7307777777777801e+01
291 246       8.0520339506172860e+01
291 247      -2.8044907407407407e+00
291 248      -1.6826944444444454e+01
291 249       2.0317052469135813e+01
291 271       1.1102230246251565e-16
291 272       2.6645352591003757e-15
291 273      -1.2962901234567887e+01
291 274       4.4408920985006262e-16
291 275      -2.6645352591003757e-15
291 276      -5.4843086419753057e+01
291 277      -2.2204460492503131e-16
291 278      -3.9968028886505635e-15
291 279      -1.2962901234567909e+01
291 286      -2.2204460492503131e-16
291 287       1.4210854715202004e-14
291 288      -1.5954493827160491e+02
291 289       2.6645352591003757e-15
291 290       7.1054273576010019e-14
291 292      -8.8817841970012523e-16
291 293       1.7763568394002505e-14
291 294      -1.5954493827160502e+02
291 301      -4.4408920985006262e-16
291 302       4.4408920985006262e-16
291 303      -1.2962901234567905e+01
291 304       2.6645352591003757e-15
291 305       2.6645352591003757e-15
291 306      -5.4843086419753085e+01
291 307      -2.2204460492503131e-16
291 308      -1.7763568394002505e-15
291 309      -1.2962901234567896e+01
291 331      -2.8044907407407402e+00
291 332      -1.6826944444444450e+01
291 333       2.0317052469135806e+01
291 334       3.4416913763379853e-15
291 335      -6.7307777777777801e+01
291 336       8.0520339506172860e+01
291 337       2.8044907407407416e+00
291 338      -1.6826944444444454e+01
291 339       2.0317052469135810e+01
291 346      -1.1217962962962963e+01
291 347      -2.0428103653102880e-14
291 348       5.4344876543209871e+01
291 349       1.5543122344752192e-15
291 350      -4.4408920985006262e-14
291 351       2.1438802469135805e+02
291 352       1.1217962962962964e+01
291 353       4.8849813083506888e-15
291 354       5.4344876543209892e+01
291 361      -2.8044907407407411e+00
291 362       1.6826944444444440e+01
291 363       2.0317052469135795e+01
291 364       0.0000000000000000e+00
291 365       6.7307777777777801e+01
291 366       8.0520339506172860e+01
291 367       2.8044907407407411e+00
291 368       1.6826944444444454e+01
291 369       2.0317052469135810e+01
291 415       0.0000000000000000e+00
291 416       0.0000000000000000e+00
291 417       0.0000000000000000e+00
291 418       0.0000000000000000e+00
291 419       0.0000000000000000e+00
291 420       0.0000000000000000e+00
291 424       0.0000000000000000e+00
291 425       0.0000000000000000e+00
291 426       0.0000000000000000e+00
291 427       0.0000000000000000e+00
291 428       0.0000000000000000e+00
291 429       0.0000000000000000e+00
292 292      -3.0114238683127576e+02
292 214       9.4106995884773692e+00
292 215       2.8044907407407402e+00
292 216       2.8044907407407402e+00
292 217       3.5025267489711936e+01
292 218      -3.1086244689504383e-15
292 219      -2.6645352591003757e-15
292 220       9.4106995884773674e+00
292 221      -2.8044907407407420e+00
292 222      -2.8044907407407411e+00
292 229       1.0719465020576134e+01
292 230       8.8817841970012523e-16
292 231       1.1217962962962964e+01
292 232       3.2407736625514403e+01
292 233       1.3322676295501878e-15
292 234      -5.1070259132757201e-15
292 235       1.0719465020576131e+01
292 236       9.9920072216264089e-16
292 237      -1.1217962962962964e+01
292 244       9.4106995884773692e+00
292 245      -2.8044907407407402e+00
292 246       2.8044907407407411e+00
292 247       3.5025267489711943e+01
292 248       8.8817841970012523e-16
292 249      -6.6613381477509392e-16
292 250       9.4106995884773674e+00
292 251       2.8044907407407407e+00
292 252      -2.8044907407407416e+00
292 274       1.0719465020576141e+01
292 275       1.1217962962962966e+01
292 276      -2.2204460492503131e-16
292 277       3.2407736625514410e+01
292 278      -5.5511151231257827e-15
292 279       8.8817841970012523e-16
292 280       1.0719465020576139e+01
292 281      -1.1217962962962968e+01
292 282       0.0000000000000000e+00
292 289      -6.4815473251028862e+01
292 290       6.8833827526759706e-15
292 291      -8.8817841970012523e-16
292 293       0.0000000000000000e+00
292 294       8.8817841970012523e-16
292 295      -6.4815473251028806e+01
292 296      -2.4424906541753444e-15
292 297       2.2204460492503131e-16
292 304       1.0719465020576127e+01
292 305      -1.1217962962962964e+01
292 306      -2.2204460492503131e-16
292 307       3.2407736625514417e+01
292 308       8.8817841970012523e-16
292 309       8.8817841970012523e-16
292 310       1.0719465020576127e+01
292 311       1.1217962962962964e+01
292 312       2.2204460492503131e-16
292 334       9.4106995884773728e+00
292 335       2.8044907407407411e+00
292 336      -2.8044907407407398e+00
292 337       3.5025267489711958e+01
292 338      -2.8865798640254070e-15
292 339       2.7755575615628914e-15
292 340       9.4106995884773692e+00
292 341      -2.8044907407407429e+00
292 342       2.8044907407407416e+00
292 349       1.0719465020576132e+01
292 350       3.2196467714129540e-15
292 351      -1.1217962962962964e+01
292 352       3.2407736625514403e+01
292 353       1.3322676295501878e-15
292 354       3.7747582837255322e-15
292 355       1.0719465020576127e+01
292 356      -1.2212453270876722e-15
292 357       1.1217962962962964e+01
292 364       9.4106995884773639e+00
292 365      -2.8044907407407402e+00
292 366      -2.8044907407407407e+00
292 367       3.5025267489711936e+01
292 368       7.7715611723760958e-16
292 369       3.3306690738754696e-16
292 370       9.4106995884773639e+00
292 371       2.8044907407407411e+00
292 372       2.8044907407407411e+00
293 293      -6.5014567901234602e+02
293 214       2.8044907407407402e+00
293 215       2.0317052469135813e+01
293 216       1.6826944444444454e+01
293 217      -3.8857805861880479e-15
293 218       8.0520339506172832e+01
293 219       6.7307777777777773e+01
293 220      -2.8044907407407411e+00
293 221       2.0317052469135799e+01
293 222       1.6826944444444440e+01
293 229       1.3322676295501878e-15
293 230      -1.2962901234567909e+01
293 231       8.8817841970012523e-15
293 232       1.7763568394002505e-15
293 233      -5.4843086419753092e+01
293 234      -5.3290705182007514e-15
293 235       7.7715611723760958e-16
293 236      -1.2962901234567898e+01
293 237       3.5527136788005009e-15
293 244      -2.8044907407407402e+00
293 245       2.0317052469135810e+01
293 246      -1.6826944444444454e+01
293 247       7.7715611723760958e-16
293 248       8.0520339506172860e+01
293 249      -6.7307777777777801e+01
293 250       2.8044907407407411e+00
293 251       2.0317052469135795e+01
293 252      -1.6826944444444447e+01
293 274       1.1217962962962964e+01
293 275       5.4344876543209949e+01
293 276      -2.6645352591003757e-15
293 277      -5.7731597280508140e-15
293 278       2.1438802469135811e+02
293 279       1.8651746813702630e-14
293 280      -1.1217962962962968e+01
293 281       5.4344876543209892e+01
293 282       1.0214051826551440e-14
293 289       6.6613381477509392e-15
293 290      -1.5954493827160499e+02
293 291       1.7763568394002505e-14
293 292       0.0000000000000000e+00
293 294       4.2632564145606011e-14
293 295       1.3322676295501878e-15
293 296      -1.5954493827160488e+02
293 297       3.5527136788005009e-15
293 304      -1.1217962962962966e+01
293 305       5.4344876543209885e+01
293 306      -2.2204460492503131e-15
293 307      -1.5543122344752192e-15
293 308       2.1438802469135811e+02
293 309       1.7763568394002505e-14
293 310       1.1217962962962964e+01
293 311       5.4344876543209864e+01
293 312       9.3258734068513149e-15
293 334       2.8044907407407407e+00
293 335       2.0317052469135824e+01
293 336      -1.6826944444444454e+01
293 337      -2.9976021664879227e-15
293 338       8.0520339506172888e+01
293 339      -6.7307777777777815e+01
293 340      -2.8044907407407433e+00
293 341       2.0317052469135810e+01
293 342      -1.6826944444444450e+01
293 349       3.5527136788005009e-15
293 350      -1.2962901234567912e+01
293 351      -1.7319479184152442e-14
293 352       8.8817841970012523e-16
293 353      -5.4843086419753114e+01
293 354      -1.5987211554602254e-14
293 355      -1.7763568394002505e-15
293 356      -1.2962901234567905e+01
293 357      -1.0214051826551440e-14
293 364      -2.8044907407407398e+00
293 365       2.0317052469135803e+01
293 366       1.6826944444444454e+01
293 367       6.6613381477509392e-16
293 368       8.0520339506172846e+01
293 369       6.7307777777777773e+01
293 370       2.8044907407407407e+00
293 371       2.0317052469135788e+01
293 372       1.6826944444444436e+01
294 294      -6.5014567901234591e+02
294 214       2.8044907407407398e+00
294 215       1.6826944444444457e+01
294 216       2.0317052469135813e+01
294 217      -3.4416913763379853e-15
294 218       6.7307777777777773e+01
294 219       8.0520339506172846e+01
294 220      -2.8044907407407411e+00
294 221       1.6826944444444443e+01
294 222       2.0317052469135799e+01
294 229       1.1217962962962961e+01
294 230       3.5527136788005009e-15
294 231       5.4344876543209899e+01
294 232      -1.1102230246251565e-15
294 233       8.8817841970012523e-16
294 234       2.1438802469135808e+02
294 235      -1.1217962962962964e+01
294 236       3.9968028886505635e-15
294 237       5.4344876543209878e+01
294 244       2.8044907407407407e+00
294 245      -1.6826944444444450e+01
294 246       2.0317052469135810e+01
294 247      -8.8817841970012523e-16
294 248      -6.7307777777777801e+01
294 249       8.0520339506172860e+01
294 250      -2.8044907407407407e+00
294 251      -1.6826944444444440e+01
294 252       2.0317052469135795e+01
294 274       0.0000000000000000e+00
294 275      -3.5527136788005009e-15
294 276      -1.2962901234567894e+01
294 277      -4.4408920985006262e-16
294 278       5.3290705182007514e-15
294 279      -5.4843086419753071e+01
294 280       2.2204460492503131e-16
294 281       9.3258734068513149e-15
294 282      -1.2962901234567887e+01
294 289      -4.4408920985006262e-16
294 290       1.4210854715202004e-14
294 291      -1.5954493827160502e+02
294 292       8.8817841970012523e-16
294 293       4.2632564145606011e-14
294 295      -8.8817841970012523e-16
294 296      -3.5527136788005009e-15
294 297      -1.5954493827160488e+02
294 304       0.0000000000000000e+00
294 305      -2.6645352591003757e-15
294 306      -1.2962901234567910e+01
294 307       1.3322676295501878e-15
294 308       1.4210854715202004e-14
294 309      -5.4843086419753064e+01
294 310       2.2204460492503131e-16
294 311       6.6613381477509392e-15
294 312      -1.2962901234567898e+01
294 334      -2.8044907407407398e+00
294 335      -1.6826944444444457e+01
294 336       2.0317052469135810e+01
294 337       3.3306690738754696e-15
294 338      -6.7307777777777801e+01
294 339       8.0520339506172860e+01
294 340       2.8044907407407416e+00
294 341      -1.6826944444444450e+01
294 342       2.0317052469135806e+01
294 349      -1.1217962962962964e+01
294 350      -1.6875389974302379e-14
294 351       5.4344876543209892e+01
294 352       3.3306690738754696e-15
294 353      -1.0658141036401503e-14
294 354       2.1438802469135805e+02
294 355       1.1217962962962964e+01
294 356      -9.7699626167013776e-15
294 357       5.4344876543209864e+01
294 364      -2.8044907407407402e+00
294 365       1.6826944444444450e+01
294 366       2.0317052469135803e+01
294 367       3.3306690738754696e-16
294 368       6.7307777777777773e+01
294 369       8.0520339506172832e+01
294 370       2.8044907407407411e+00
294 371       1.6826944444444436e+01
294 372       2.0317052469135799e+01
295 295      -3.0114238683127564e+02
295 217       9.4106995884773639e+00
295 218       2.8044907407407402e+00
295 219       2.8044907407407402e+00
295 220       3.5025267489711936e+01
295 221      -2.3314683517128287e-15
295 222      -3.1086244689504383e-15
295 223       9.4106995884773657e+00
295 224      -2.8044907407407416e+00
295 225      -2.8044907407407411e+00
295 232       1.0719465020576127e+01
295 233      -6.6613381477509392e-16
295 234       1.1217962962962961e+01
295 235       3.2407736625514403e+01
295 236       4.8849813083506888e-15
295 237      -3.9968028886505635e-15
295 238       1.0719465020576131e+01
295 239       4.4408920985006262e-16
295 240      -1.1217962962962966e+01
295 247       9.4106995884773692e+00
295 248      -2.8044907407407411e+00
295 249       2.8044907407407402e+00
295 250       3.5025267489711936e+01
295 251       8.8817841970012523e-16
295 252      -6.6613381477509392e-16
295 253       9.4106995884773639e+00
295 254       2.8044907407407407e+00
295 255      -2.8044907407407411e+00
295 277       1.0719465020576125e+01
295 278       1.1217962962962961e+01
295 279       0.0000000000000000e+00
295 280       3.2407736625514396e+01
295 281      -4.6629367034256575e-15
295 282       0.0000000000000000e+00
295 283       1.0719465020576143e+01
295 284      -1.1217962962962968e+01
295 285       0.0000000000000000e+00
295 292      -6.4815473251028806e+01
295 293       1.3322676295501878e-15
295 294      -8.8817841970012523e-16
295 296       1.5099033134902129e-14
295 297       5.3290705182007514e-15
295 298      -6.4815473251028806e+01
295 299      -3.7747582837255322e-15
295 300       0.0000000000000000e+00
295 307       1.0719465020576138e+01
295 308      -1.1217962962962968e+01
295 309       1.1102230246251565e-16
295 310       3.2407736625514403e+01
295 311       1.7763568394002505e-15
295 312       8.8817841970012523e-16
295 313       1.0719465020576123e+01
295 314       1.1217962962962964e+01
295 315      -2.2204460492503131e-16
295 337       9.4106995884773657e+00
295 338       2.8044907407407402e+00
295 339      -2.8044907407407398e+00
295 340       3.5025267489711943e+01
295 341      -2.5535129566378600e-15
295 342       2.3314683517128287e-15
295 343       9.4106995884773710e+00
295 344      -2.8044907407407420e+00
295 345       2.8044907407407411e+00
295 352       1.0719465020576127e+01
295 353       1.3322676295501878e-15
295 354      -1.1217962962962963e+01
295 355       3.2407736625514389e+01
295 356       5.3290705182007514e-15
295 357       3.1086244689504383e-15
295 358       1.0719465020576129e+01
295 359      -2.2204460492503131e-15
295 360       1.1217962962962964e+01
295 367       9.4106995884773657e+00
295 368      -2.8044907407407411e+00
295 369      -2.8044907407407407e+00
295 370       3.5025267489711929e+01
295 371       8.8817841970012523e-16
295 372      -3.3306690738754696e-16
295 373       9.4106995884773621e+00
295 374       2.8044907407407407e+00
295 375       2.8044907407407407e+00
296 296      -6.5014567901234579e+02
296 217       2.8044907407407402e+00
296 218       2.0317052469135792e+01
296 219       1.6826944444444436e+01
296 220      -2.8865798640254070e-15
296 221       8.0520339506172832e+01
296 222       6.7307777777777773e+01
296 223      -2.8044907407407416e+00
296 224       2.0317052469135806e+01
296 225       1.6826944444444443e+01
296 232      -5.5511151231257827e-16
296 233      -1.2962901234567898e+01
296 234      -7.1054273576010019e-15
296 235       5.3290705182007514e-15
296 236      -5.4843086419753071e+01
296 237      -6.2172489379008766e-15
296 238       3.3306690738754696e-16
296 239      -1.2962901234567900e+01
296 240       6.2172489379008766e-15
296 247      -2.8044907407407407e+00
296 248       2.0317052469135806e+01
296 249      -1.6826944444444450e+01
296 250       1.2212453270876722e-15
296 251       8.0520339506172846e+01
296 252      -6.7307777777777773e+01
296 253       2.8044907407407407e+00
296 254       2.0317052469135795e+01
296 255      -1.6826944444444443e+01
296 277       1.1217962962962964e+01
296 278       5.4344876543209850e+01
296 279       1.1102230246251565e-14
296 280      -3.3306690738754696e-15
296 281       2.1438802469135805e+02
296 282       2.3980817331903381e-14
296 283      -1.1217962962962968e+01
296 284       5.4344876543209921e+01
296 285       5.7731597280508140e-15
296 292      -2.4424906541753444e-15
296 293      -1.5954493827160488e+02
296 294      -3.5527136788005009e-15
296 295       1.5099033134902129e-14
296 297       7.1054273576010019e-15
296 298      -1.1102230246251565e-15
296 299      -1.5954493827160491e+02
296 300       1.0658141036401503e-14
296 307      -1.1217962962962968e+01
296 308       5.4344876543209892e+01
296 309       8.8817841970012523e-15
296 310       2.2204460492503131e-15
296 311       2.1438802469135805e+02
296 312       1.0658141036401503e-14
296 313       1.1217962962962964e+01
296 314       5.4344876543209843e+01
296 315       1.3322676295501878e-15
296 337       2.8044907407407398e+00
296 338       2.0317052469135803e+01
296 339      -1.6826944444444447e+01
296 340      -2.5535129566378600e-15
296 341       8.0520339506172874e+01
296 342      -6.7307777777777801e+01
296 343      -2.8044907407407429e+00
296 344       2.0317052469135817e+01
296 345      -1.6826944444444450e+01
296 352       1.3322676295501878e-15
296 353      -1.2962901234567903e+01
296 354       3.1086244689504383e-15
296 355       3.9968028886505635e-15
296 356      -5.4843086419753106e+01
296 357      -1.1546319456101628e-14
296 358      -2.3314683517128287e-15
296 359      -1.2962901234567905e+01
296 360      -1.3766765505351941e-14
296 367      -2.8044907407407407e+00
296 368       2.0317052469135795e+01
296 369       1.6826944444444440e+01
296 370       1.5543122344752192e-15
296 371       8.0520339506172803e+01
296 372       6.7307777777777758e+01
296 373       2.8044907407407402e+00
296 374       2.0317052469135788e+01
296 375       1.6826944444444440e+01
297 297      -6.5014567901234568e+02
297 217       2.8044907407407402e+00
297 218       1.6826944444444440e+01
297 219       2.0317052469135795e+01
297 220      -3.5527136788005009e-15
297 221       6.7307777777777773e+01
297 222       8.0520339506172832e+01
297 223      -2.8044907407407411e+00
297 224       1.6826944444444443e+01
297 225       2.0317052469135803e+01
297 232       1.1217962962962964e+01
297 233      -1.0214051826551440e-14
297 234       5.4344876543209878e+01
297 235      -2.4424906541753444e-15
297 236       6.2172489379008766e-15
297 237       2.1438802469135800e+02
297 238      -1.1217962962962964e+01
297 239       1.4210854715202004e-14
297 240       5.4344876543209871e+01
297 247       2.8044907407407407e+00
297 248      -1.6826944444444447e+01
297 249       2.0317052469135799e+01
297 250      -1.2212453270876722e-15
297 251      -6.7307777777777773e+01
297 252       8.0520339506172832e+01
297 253      -2.8044907407407407e+00
297 254      -1.6826944444444447e+01
297 255       2.0317052469135803e+01
297 277      -3.3306690738754696e-16
297 278       8.8817841970012523e-15
297 279      -1.2962901234567898e+01
297 280       4.4408920985006262e-16
297 281       1.9539925233402755e-14
297 282      -5.4843086419753050e+01
297 283       1.1102230246251565e-16
297 284       1.3322676295501878e-15
297 285      -1.2962901234567882e+01
297 292       2.2204460492503131e-16
297 293       3.5527136788005009e-15
297 294      -1.5954493827160488e+02
297 295       5.3290705182007514e-15
297 296       7.1054273576010019e-15
297 298      -1.3322676295501878e-15
297 299       7.1054273576010019e-15
297 300      -1.5954493827160493e+02
297 307       1.1102230246251565e-16
297 308       9.3258734068513149e-15
297 309      -1.2962901234567887e+01
297 310       1.3322676295501878e-15
297 311       1.0658141036401503e-14
297 312      -5.4843086419753064e+01
297 313      -1.1102230246251565e-16
297 314       2.6645352591003757e-15
297 315      -1.2962901234567903e+01
297 337      -2.8044907407407398e+00
297 338      -1.6826944444444447e+01
297 339       2.0317052469135806e+01
297 340       2.9976021664879227e-15
297 341      -6.7307777777777787e+01
297 342       8.0520339506172832e+01
297 343       2.8044907407407411e+00
297 344      -1.6826944444444447e+01
297 345       2.0317052469135806e+01
297 352      -1.1217962962962964e+01
297 353       1.7763568394002505e-15
297 354       5.4344876543209864e+01
297 355       2.6645352591003757e-15
297 356      -1.6875389974302379e-14
297 357       2.1438802469135800e+02
297 358       1.1217962962962964e+01
297 359      -1.7763568394002505e-14
297 360       5.4344876543209864e+01
297 367      -2.8044907407407407e+00
297 368       1.6826944444444440e+01
297 369       2.0317052469135799e+01
297 370       2.2204460492503131e-16
297 371       6.7307777777777744e+01
297 372       8.0520339506172832e+01
297 373       2.8044907407407402e+00
297 374       1.6826944444444436e+01
297 375       2.0317052469135799e+01
298 298      -1.5057119341563785e+02
298 220       9.4106995884773621e+00
298 221       2.8044907407407398e+00
298 222       2.8044907407407402e+00
298 223       1.7512633744855961e+01
298 224       5.6087962962962812e-01
298 225       5.6087962962962790e-01
298 235       1.0719465020576131e+01
298 236      -1.2212453270876722e-15
298 237       1.1217962962962964e+01
298 238       1.6203868312757209e+01
298 239       2.2204460492503131e-15
298 240       2.2435185185185178e+00
298 250       9.4106995884773674e+00
298 251      -2.8044907407407416e+00
298 252       2.8044907407407407e+00
298 253       1.7512633744855968e+01
298 254      -5.6087962962962945e-01
298 255       5.6087962962962934e-01
298 280       1.0719465020576120e+01
298 281       1.1217962962962963e+01
298 282       2.2204460492503131e-16
298 283       1.6203868312757205e+01
298 284       2.2435185185185156e+00
298 285       4.4408920985006262e-16
298 295      -6.4815473251028806e+01
298 296      -1.1102230246251565e-15
298 297      -1.3322676295501878e-15
298 299       1.2434497875801753e-14
298 300       3.5527136788005009e-15
298 310       1.0719465020576141e+01
298 311      -1.1217962962962966e+01
298 312       0.0000000000000000e+00
298 313       1.6203868312757194e+01
298 314      -2.2435185185185187e+00
298 315       8.8817841970012523e-16
298 340       9.4106995884773657e+00
298 341       2.8044907407407398e+00
298 342      -2.8044907407407398e+00
298 343       1.7512633744855968e+01
298 344       5.6087962962962790e-01
298 345      -5.6087962962962790e-01
298 355       1.0719465020576129e+01
298 356       7.7715611723760958e-16
298 357      -1.1217962962962963e+01
298 358       1.6203868312757198e+01
298 359       2.2204460492503131e-15
298 360      -2.2435185185185165e+00
298 370       9.4106995884773657e+00
298 371      -2.8044907407407407e+00
298 372      -2.8044907407407407e+00
298 373       1.7512633744855965e+01
298 374      -5.6087962962962956e-01
298 375      -5.6087962962962956e-01
299 299      -3.2507283950617295e+02
299 220       2.8044907407407393e+00
299 221       2.0317052469135792e+01
299 222       1.6826944444444440e+01
299 223      -5.6087962962963134e-01
299 224       4.0260169753086416e+01
299 225       3.3653888888888893e+01
299 235      -1.2212453270876722e-15
299 236      -1.2962901234567898e+01
299 237      -1.4654943925052066e-14
299 238       2.2204460492503131e-15
299 239      -2.7421543209876539e+01
299 240      -1.7763568394002505e-15
299 250      -2.8044907407407407e+00
299 251       2.0317052469135806e+01
299 252      -1.6826944444444447e+01
299 253       5.6087962962962989e-01
299 254       4.0260169753086430e+01
299 255      -3.3653888888888886e+01
299 280       1.1217962962962963e+01
299 281       5.4344876543209850e+01
299 282       1.7763568394002505e-15
299 283      -2.2435185185185214e+00
299 284       1.0719401234567903e+02
299 285       7.1054273576010019e-15
299 295      -3.7747582837255322e-15
299 296      -1.5954493827160491e+02
299 297       7.1054273576010019e-15
299 298       1.2434497875801753e-14
299 300       0.0000000000000000e+00
299 310      -1.1217962962962968e+01
299 311       5.4344876543209907e+01
299 312      -4.4408920985006262e-16
299 313       2.2435185185185191e+00
299 314       1.0719401234567903e+02
299 315      -3.5527136788005009e-15
299 340       2.8044907407407398e+00
299 341       2.0317052469135803e+01
299 342      -1.6826944444444447e+01
299 343      -5.6087962962963156e-01
299 344       4.0260169753086437e+01
299 345      -3.3653888888888901e+01
299 355       9.9920072216264089e-16
299 356      -1.2962901234567902e+01
299 357       1.0214051826551440e-14
299 358       8.8817841970012523e-16
299 359      -2.7421543209876546e+01
299 360       7.1054273576010019e-15
299 370      -2.8044907407407407e+00
299 371       2.0317052469135803e+01
299 372       1.6826944444444443e+01
299 373       5.6087962962963023e-01
299 374       4.0260169753086409e+01
299 375       3.3653888888888893e+01
300 300      -3.2507283950617290e+02
300 220       2.8044907407407402e+00
300 221       1.6826944444444436e+01
300 222       2.0317052469135795e+01
300 223      -5.6087962962963134e-01
300 224       3.3653888888888893e+01
300 225       4.0260169753086423e+01
300 235       1.1217962962962964e+01
300 236      -1.1546319456101628e-14
300 237       5.4344876543209871e+01
300 238      -2.2435185185185196e+00
300 239       1.3322676295501878e-14
300 240       1.0719401234567903e+02
300 250       2.8044907407407407e+00
300 251      -1.6826944444444450e+01
300 252       2.0317052469135803e+01
300 253      -5.6087962962962967e-01
300 254      -3.3653888888888893e+01
300 255       4.0260169753086423e+01
300 280       1.1102230246251565e-16
300 281       4.4408920985006262e-16
300 282      -1.2962901234567903e+01
300 283       4.4408920985006262e-16
300 284       8.8817841970012523e-16
300 285      -2.7421543209876525e+01
300 295       0.0000000000000000e+00
300 296       1.0658141036401503e-14
300 297      -1.5954493827160493e+02
300 298       3.5527136788005009e-15
300 299       0.0000000000000000e+00
300 310       1.1102230246251565e-16
300 311       3.5527136788005009e-15
300 312      -1.2962901234567886e+01
300 313       1.3322676295501878e-15
300 314       7.1054273576010019e-15
300 315      -2.7421543209876546e+01
300 340      -2.8044907407407402e+00
300 341      -1.6826944444444443e+01
300 342       2.0317052469135803e+01
300 343       5.6087962962963123e-01
300 344      -3.3653888888888886e+01
300 345       4.0260169753086416e+01
300 355      -1.1217962962962964e+01
300 356       2.6645352591003757e-15
300 357       5.4344876543209864e+01
300 358       2.2435185185185209e+00
300 359      -1.4210854715202004e-14
300 360       1.0719401234567900e+02
300 370      -2.8044907407407411e+00
300 371       1.6826944444444443e+01
300 372       2.0317052469135803e+01
300 373       5.6087962962962978e-01
300 374       3.3653888888888886e+01
300 375       4.0260169753086423e+01
301 301      -7.5285596707818911e+01
301 226       1.7512633744855968e+01
301 227      -5.6087962962963045e-01
301 228      -5.6087962962963001e-01
301 229       9.4106995884773621e+00
301 230      -2.8044907407407411e+00
301 231      -2.8044907407407411e+00
301 241       8.1019341563785918e+00
301 242       2.8044907407407402e+00
301 243      -1.1217592592592596e+00
301 244       5.3597325102880653e+00
301 245       5.6087962962963034e-01
301 246      -5.6089814814814813e+00
301 286       1.6203868312757205e+01
301 287      -2.2435185185185196e+00
301 288       4.4408920985006262e-16
301 289       1.0719465020576123e+01
301 290      -1.1217962962962964e+01
301 291      -4.4408920985006262e-16
301 302       1.1217962962962964e+01
301 303      -2.6645352591003757e-15
301 304      -3.2407736625514389e+01
301 305       2.2435185185185214e+00
301 306      -6.6613381477509392e-16
301 346       1.7512633744855972e+01
301 347      -5.6087962962963034e-01
301 348       5.6087962962962967e-01
301 349       9.4106995884773657e+00
301 350      -2.8044907407407416e+00
301 351       2.8044907407407411e+00
301 361       8.1019341563785918e+00
301 362       2.8044907407407411e+00
301 363       1.1217592592592602e+00
301 364       5.3597325102880635e+00
301 365       5.6087962962962989e-01
301 366       5.6089814814814831e+00
301 391      -5.5555555555555497e-02
301 392       0.0000000000000000e+00
301 393       0.0000000000000000e+00
301 400      -5.5555555555555525e-02
301 401       0.0000000000000000e+00
301 402       0.0000000000000000e+00
301 418       0.0000000000000000e+00
301 419       0.0000000000000000e+00
301 420       0.0000000000000000e+00
301 427       0.0000000000000000e+00
301 428       0.0000000000000000e+00
301 429       0.0000000000000000e+00
302 302      -1.6253641975308642e+02
302 226       5.6087962962962867e-01
302 227       4.0260169753086409e+01
302 228       3.3653888888888886e+01
302 229      -2.8044907407407407e+00
302 230       2.0317052469135788e+01
302 231       1.6826944444444440e+01
302 241       2.8044907407407393e+00
302 242      -1.3710771604938280e+01
302 243       6.7305555555555481e+00
302 244      -5.6087962962962890e-01
302 245      -6.4814506172839472e+00
302 246       3.3652777777777674e+00
302 286       2.2435185185185178e+00
302 287       1.0719401234567904e+02
302 288      -4.4408920985006262e-15
302 289      -1.1217962962962964e+01
302 290       5.4344876543209850e+01
302 291       4.4408920985006262e-16
302 301       1.1217962962962964e+01
302 303       1.4210854715202004e-14
302 304      -2.2435185185185151e+00
302 305      -7.9772469135802410e+01
302 306       1.4210854715202004e-14
302 346       5.6087962962962956e-01
302 347       4.0260169753086423e+01
302 348      -3.3653888888888893e+01
302 349      -2.8044907407407416e+00
302 350       2.0317052469135803e+01
302 351      -1.6826944444444440e+01
302 361       2.8044907407407407e+00
302 362      -1.3710771604938287e+01
302 363      -6.7305555555555596e+00
302 364      -5.6087962962962967e-01
302 365      -6.4814506172839543e+00
302 366      -3.3652777777777776e+00
302 391       0.0000000000000000e+00
302 392       0.0000000000000000e+00
302 393       5.5555555555555497e-02
302 400       0.0000000000000000e+00
302 401       0.0000000000000000e+00
302 402       5.5555555555555525e-02
302 418       0.0000000000000000e+00
302 419       0.0000000000000000e+00
302 420       0.0000000000000000e+00
302 427       0.0000000000000000e+00
302 428       0.0000000000000000e+00
302 429       0.0000000000000000e+00
303 303      -1.6253641975308636e+02
303 226       5.6087962962962912e-01
303 227       3.3653888888888886e+01
303 228       4.0260169753086416e+01
303 229      -2.8044907407407407e+00
303 230       1.6826944444444440e+01
303 231       2.0317052469135795e+01
303 241       1.1217592592592580e+00
303 242      -6.7305555555555578e+00
303 243       5.3597006172839485e+01
303 244      -5.6089814814814813e+00
303 245      -3.3652777777777843e+00
303 246       2.7172438271604925e+01
303 286       4.4408920985006262e-16
303 287      -3.5527136788005009e-15
303 288      -2.7421543209876521e+01
303 289       0.0000000000000000e+00
303 290       0.0000000000000000e+00
303 291      -1.2962901234567905e+01
303 301      -2.6645352591003757e-15
303 302       1.4210854715202004e-14
303 304       2.2204460492503131e-16
303 305       1.0658141036401503e-14
303 306      -7.9772469135802439e+01
303 346      -5.6087962962962912e-01
303 347      -3.3653888888888879e+01
303 348       4.0260169753086416e+01
303 349       2.8044907407407411e+00
303 350      -1.6826944444444447e+01
303 351       2.0317052469135799e+01
303 361      -1.1217592592592576e+00
303 362       6.7305555555555436e+00
303 363       5.3597006172839485e+01
303 364       5.6089814814814831e+00
303 365       3.3652777777777767e+00
303 366       2.7172438271604932e+01
303 391       0.0000000000000000e+00
303 392       5.5555555555555497e-02
303 393       0.0000000000000000e+00
303 400       0.0000000000000000e+00
303 401       5.5555555555555525e-02
303 402       0.0000000000000000e+00
303 418       0.0000000000000000e+00
303 419       0.0000000000000000e+00
303 420       0.0000000000000000e+00
303 427       0.0000000000000000e+00
303 428       0.0000000000000000e+00
303 429       0.0000000000000000e+00
304 304      -1.5057119341563791e+02
304 226       9.4106995884773657e+00
304 227       2.8044907407407411e+00
304 228       2.8044907407407407e+00
304 229       3.5025267489711943e+01
304 230      -2.4424906541753444e-15
304 231      -1.8873791418627661e-15
304 232       9.4106995884773657e+00
304 233      -2.8044907407407411e+00
304 234      -2.8044907407407411e+00
304 241       5.3597325102880635e+00
304 242      -5.6087962962962934e-01
304 243       5.6089814814814805e+00
304 244       1.6203868312757205e+01
304 245      -8.8817841970012523e-16
304 246      -3.5527136788005009e-15
304 247       5.3597325102880671e+00
304 248       5.6087962962963045e-01
304 249      -5.6089814814814831e+00
304 286       1.0719465020576138e+01
304 287       1.1217962962962966e+01
304 288       1.1102230246251565e-16
304 289       3.2407736625514410e+01
304 290      -5.5511151231257827e-15
304 291       2.6645352591003757e-15
304 292       1.0719465020576127e+01
304 293      -1.1217962962962966e+01
304 294       0.0000000000000000e+00
304 301      -3.2407736625514389e+01
304 302      -2.2435185185185151e+00
304 303       2.2204460492503131e-16
304 305      -3.5527136788005009e-15
304 306       1.7763568394002505e-15
304 307      -3.2407736625514431e+01
304 308       2.2435185185185222e+00
304 309       2.2204460492503131e-16
304 346       9.4106995884773692e+00
304 347       2.8044907407407407e+00
304 348      -2.8044907407407407e+00
304 349       3.5025267489711950e+01
304 350      -2.3314683517128287e-15
304 351       1.1102230246251565e-16
304 352       9.4106995884773692e+00
304 353      -2.8044907407407416e+00
304 354       2.8044907407407411e+00
304 361       5.3597325102880635e+00
304 362      -5.6087962962962790e-01
304 363      -5.6089814814814822e+00
304 364       1.6203868312757194e+01
304 365      -4.4408920985006262e-16
304 366       2.2204460492503131e-15
304 367       5.3597325102880653e+00
304 368       5.6087962962962989e-01
304 369       5.6089814814814840e+00
304 418       0.0000000000000000e+00
304 419       0.0000000000000000e+00
304 420       0.0000000000000000e+00
304 427       0.0000000000000000e+00
304 428       0.0000000000000000e+00
304 429       0.0000000000000000e+00
305 305      -3.2507283950617301e+02
305 226       2.8044907407407407e+00
305 227       2.0317052469135803e+01
305 228       1.6826944444444443e+01
305 229      -2.3314683517128287e-15
305 230       8.0520339506172860e+01
305 231       6.7307777777777801e+01
305 232      -2.8044907407407407e+00
305 233       2.0317052469135803e+01
305 234       1.6826944444444450e+01
305 241       5.6087962962962967e-01
305 242      -6.4814506172839490e+00
305 243       3.3652777777777776e+00
305 244      -1.3322676295501878e-15
305 245      -2.7421543209876560e+01
305 246       1.3461111111111100e+01
305 247      -5.6087962962962945e-01
305 248      -6.4814506172839588e+00
305 249       3.3652777777777723e+00
305 286       1.1217962962962964e+01
305 287       5.4344876543209907e+01
305 288      -8.8817841970012523e-16
305 289      -6.6613381477509392e-16
305 290       2.1438802469135814e+02
305 291       2.6645352591003757e-15
305 292      -1.1217962962962964e+01
305 293       5.4344876543209885e+01
305 294      -2.6645352591003757e-15
305 301       2.2435185185185214e+00
305 302      -7.9772469135802410e+01
305 303       1.0658141036401503e-14
305 304      -3.5527136788005009e-15
305 306       4.2632564145606011e-14
305 307      -2.2435185185185169e+00
305 308      -7.9772469135802510e+01
305 309       1.4210854715202004e-14
305 346       2.8044907407407416e+00
305 347       2.0317052469135817e+01
305 348      -1.6826944444444447e+01
305 349      -1.7763568394002505e-15
305 350       8.0520339506172888e+01
305 351      -6.7307777777777801e+01
305 352      -2.8044907407407411e+00
305 353       2.0317052469135813e+01
305 354      -1.6826944444444450e+01
305 361       5.6087962962963123e-01
305 362      -6.4814506172839543e+00
305 363      -3.3652777777777865e+00
305 364      -1.7763568394002505e-15
305 365      -2.7421543209876582e+01
305 366      -1.3461111111111137e+01
305 367      -5.6087962962963012e-01
305 368      -6.4814506172839641e+00
305 369      -3.3652777777777838e+00
305 418       0.0000000000000000e+00
305 419       0.0000000000000000e+00
305 420       0.0000000000000000e+00
305 427       0.0000000000000000e+00
305 428       0.0000000000000000e+00
305 429       0.0000000000000000e+00
306 306      -3.2507283950617295e+02
306 226       2.8044907407407411e+00
306 227       1.6826944444444443e+01
306 228       2.0317052469135799e+01
306 229      -2.1094237467877974e-15
306 230       6.7307777777777801e+01
306 231       8.0520339506172860e+01
306 232      -2.8044907407407407e+00
306 233       1.6826944444444450e+01
306 234       2.0317052469135810e+01
306 241       5.6089814814814813e+00
306 242      -3.3652777777777758e+00
306 243       2.7172438271604932e+01
306 244      -1.3322676295501878e-15
306 245      -1.3461111111111126e+01
306 246       1.0719401234567906e+02
306 247      -5.6089814814814822e+00
306 248      -3.3652777777777905e+00
306 249       2.7172438271604953e+01
306 286       0.0000000000000000e+00
306 287      -1.3322676295501878e-15
306 288      -1.2962901234567891e+01
306 289       2.6645352591003757e-15
306 290      -1.1546319456101628e-14
306 291      -5.4843086419753085e+01
306 292      -2.2204460492503131e-16
306 293      -2.2204460492503131e-15
306 294      -1.2962901234567910e+01
306 301      -6.6613381477509392e-16
306 302       1.4210854715202004e-14
306 303      -7.9772469135802439e+01
306 304       1.7763568394002505e-15
306 305       4.2632564145606011e-14
306 307      -4.4408920985006262e-16
306 308       1.4210854715202004e-14
306 309      -7.9772469135802538e+01
306 346      -2.8044907407407411e+00
306 347      -1.6826944444444447e+01
306 348       2.0317052469135803e+01
306 349       5.5511151231257827e-16
306 350      -6.7307777777777801e+01
306 351       8.0520339506172874e+01
306 352       2.8044907407407411e+00
306 353      -1.6826944444444454e+01
306 354       2.0317052469135810e+01
306 361      -5.6089814814814813e+00
306 362       3.3652777777777656e+00
306 363       2.7172438271604928e+01
306 364       2.8865798640254070e-15
306 365       1.3461111111111098e+01
306 366       1.0719401234567904e+02
306 367       5.6089814814814840e+00
306 368       3.3652777777777789e+00
306 369       2.7172438271604950e+01
306 418       0.0000000000000000e+00
306 419       0.0000000000000000e+00
306 420       0.0000000000000000e+00
306 427       0.0000000000000000e+00
306 428       0.0000000000000000e+00
306 429       0.0000000000000000e+00
307 307      -1.5057119341563788e+02
307 229       9.4106995884773728e+00
307 230       2.8044907407407411e+00
307 231       2.8044907407407411e+00
307 232       3.5025267489711936e+01
307 233      -1.8873791418627661e-15
307 234      -1.6653345369377348e-15
307 235       9.4106995884773674e+00
307 236      -2.8044907407407411e+00
307 237      -2.8044907407407420e+00
307 244       5.3597325102880671e+00
307 245      -5.6087962962962989e-01
307 246       5.6089814814814831e+00
307 247       1.6203868312757201e+01
307 248      -4.4408920985006262e-16
307 249      -1.7763568394002505e-15
307 250       5.3597325102880653e+00
307 251       5.6087962962962956e-01
307 252      -5.6089814814814822e+00
307 289       1.0719465020576141e+01
307 290       1.1217962962962968e+01
307 291      -2.2204460492503131e-16
307 292       3.2407736625514417e+01
307 293      -1.5543122344752192e-15
307 294       1.3322676295501878e-15
307 295       1.0719465020576138e+01
307 296      -1.1217962962962968e+01
307 297       1.1102230246251565e-16
307 304      -3.2407736625514431e+01
307 305      -2.2435185185185169e+00
307 306      -4.4408920985006262e-16
307 308       0.0000000000000000e+00
307 309      -8.8817841970012523e-16
307 310      -3.2407736625514403e+01
307 311       2.2435185185185187e+00
307 312      -4.4408920985006262e-16
307 349       9.4106995884773745e+00
307 350       2.8044907407407416e+00
307 351      -2.8044907407407407e+00
307 352       3.5025267489711950e+01
307 353      -1.7763568394002505e-15
307 354       6.6613381477509392e-16
307 355       9.4106995884773692e+00
307 356      -2.8044907407407420e+00
307 357       2.8044907407407411e+00
307 364       5.3597325102880635e+00
307 365      -5.6087962962962856e-01
307 366      -5.6089814814814813e+00
307 367       1.6203868312757194e+01
307 368       8.8817841970012523e-16
307 369       2.4424906541753444e-15
307 370       5.3597325102880635e+00
307 371       5.6087962962962912e-01
307 372       5.6089814814814831e+00
308 308      -3.2507283950617301e+02
308 229       2.8044907407407402e+00
308 230       2.0317052469135813e+01
308 231       1.6826944444444457e+01
308 232      -1.8873791418627661e-15
308 233       8.0520339506172832e+01
308 234       6.7307777777777773e+01
308 235      -2.8044907407407416e+00
308 236       2.0317052469135795e+01
308 237       1.6826944444444443e+01
308 244       5.6087962962962978e-01
308 245      -6.4814506172839605e+00
308 246       3.3652777777777820e+00
308 247       0.0000000000000000e+00
308 248      -2.7421543209876560e+01
308 249       1.3461111111111116e+01
308 250      -5.6087962962963012e-01
308 251      -6.4814506172839552e+00
308 252       3.3652777777777834e+00
308 289       1.1217962962962966e+01
308 290       5.4344876543209942e+01
308 291      -1.7763568394002505e-15
308 292       8.8817841970012523e-16
308 293       2.1438802469135811e+02
308 294       1.4210854715202004e-14
308 295      -1.1217962962962968e+01
308 296       5.4344876543209892e+01
308 297       9.3258734068513149e-15
308 304       2.2435185185185222e+00
308 305      -7.9772469135802510e+01
308 306       1.4210854715202004e-14
308 307       0.0000000000000000e+00
308 309       7.1054273576010019e-15
308 310      -2.2435185185185196e+00
308 311      -7.9772469135802453e+01
308 312       3.5527136788005009e-15
308 349       2.8044907407407407e+00
308 350       2.0317052469135827e+01
308 351      -1.6826944444444454e+01
308 352      -7.7715611723760958e-16
308 353       8.0520339506172888e+01
308 354      -6.7307777777777801e+01
308 355      -2.8044907407407424e+00
308 356       2.0317052469135810e+01
308 357      -1.6826944444444447e+01
308 364       5.6087962962963123e-01
308 365      -6.4814506172839641e+00
308 366      -3.3652777777777927e+00
308 367       4.4408920985006262e-16
308 368      -2.7421543209876575e+01
308 369      -1.3461111111111130e+01
308 370      -5.6087962962963067e-01
308 371      -6.4814506172839597e+00
308 372      -3.3652777777777843e+00
309 309      -3.2507283950617295e+02
309 229       2.8044907407407407e+00
309 230       1.6826944444444457e+01
309 231       2.0317052469135813e+01
309 232      -1.4432899320127035e-15
309 233       6.7307777777777801e+01
309 234       8.0520339506172860e+01
309 235      -2.8044907407407407e+00
309 236       1.6826944444444443e+01
309 237       2.0317052469135799e+01
309 244       5.6089814814814813e+00
309 245      -3.3652777777777820e+00
309 246       2.7172438271604953e+01
309 247      -2.2204460492503131e-15
309 248      -1.3461111111111119e+01
309 249       1.0719401234567906e+02
309 250      -5.6089814814814805e+00
309 251      -3.3652777777777731e+00
309 252       2.7172438271604939e+01
309 289       2.2204460492503131e-16
309 290      -8.8817841970012523e-16
309 291      -1.2962901234567896e+01
309 292       8.8817841970012523e-16
309 293       1.7763568394002505e-14
309 294      -5.4843086419753064e+01
309 295       1.1102230246251565e-16
309 296       8.8817841970012523e-15
309 297      -1.2962901234567887e+01
309 304       2.2204460492503131e-16
309 305       1.4210854715202004e-14
309 306      -7.9772469135802538e+01
309 307      -8.8817841970012523e-16
309 308       7.1054273576010019e-15
309 310      -8.8817841970012523e-16
309 311       0.0000000000000000e+00
309 312      -7.9772469135802453e+01
309 349      -2.8044907407407402e+00
309 350      -1.6826944444444457e+01
309 351       2.0317052469135810e+01
309 352       7.7715611723760958e-16
309 353      -6.7307777777777801e+01
309 354       8.0520339506172860e+01
309 355       2.8044907407407416e+00
309 356      -1.6826944444444450e+01
309 357       2.0317052469135803e+01
309 364      -5.6089814814814813e+00
309 365       3.3652777777777692e+00
309 366       2.7172438271604950e+01
309 367       2.4424906541753444e-15
309 368       1.3461111111111100e+01
309 369       1.0719401234567903e+02
309 370       5.6089814814814822e+00
309 371       3.3652777777777740e+00
309 372       2.7172438271604932e+01
310 310      -1.5057119341563785e+02
310 232       9.4106995884773639e+00
310 233       2.8044907407407402e+00
310 234       2.8044907407407402e+00
310 235       3.5025267489711936e+01
310 236      -9.9920072216264089e-16
310 237      -1.4432899320127035e-15
310 238       9.4106995884773674e+00
310 239      -2.8044907407407411e+00
310 240      -2.8044907407407411e+00
310 247       5.3597325102880644e+00
310 248      -5.6087962962963056e-01
310 249       5.6089814814814813e+00
310 250       1.6203868312757194e+01
310 251       4.4408920985006262e-16
310 252      -1.5543122344752192e-15
310 253       5.3597325102880617e+00
310 254       5.6087962962962923e-01
310 255      -5.6089814814814822e+00
310 292       1.0719465020576127e+01
310 293       1.1217962962962964e+01
310 294       2.2204460492503131e-16
310 295       3.2407736625514403e+01
310 296       2.2204460492503131e-15
310 297       1.3322676295501878e-15
310 298       1.0719465020576141e+01
310 299      -1.1217962962962968e+01
310 300       1.1102230246251565e-16
310 307      -3.2407736625514403e+01
310 308      -2.2435185185185196e+00
310 309      -8.8817841970012523e-16
310 311       2.6645352591003757e-15
310 312       8.8817841970012523e-16
310 313      -3.2407736625514389e+01
310 314       2.2435185185185160e+00
310 315      -6.6613381477509392e-16
310 352       9.4106995884773674e+00
310 353       2.8044907407407411e+00
310 354      -2.8044907407407407e+00
310 355       3.5025267489711943e+01
310 356      -9.9920072216264089e-16
310 357      -3.3306690738754696e-16
310 358       9.4106995884773710e+00
310 359      -2.8044907407407420e+00
310 360       2.8044907407407411e+00
310 367       5.3597325102880617e+00
310 368      -5.6087962962962923e-01
310 369      -5.6089814814814813e+00
310 370       1.6203868312757187e+01
310 371       1.3322676295501878e-15
310 372       1.1102230246251565e-15
310 373       5.3597325102880609e+00
310 374       5.6087962962962867e-01
310 375       5.6089814814814822e+00
311 311      -3.2507283950617284e+02
311 232       2.8044907407407407e+00
311 233       2.0317052469135788e+01
311 234       1.6826944444444440e+01
311 235      -1.6653345369377348e-15
311 236       8.0520339506172817e+01
311 237       6.7307777777777773e+01
311 238      -2.8044907407407416e+00
311 239       2.0317052469135806e+01
311 240       1.6826944444444447e+01
311 247       5.6087962962962878e-01
311 248      -6.4814506172839534e+00
311 249       3.3652777777777780e+00
311 250       1.3322676295501878e-15
311 251      -2.7421543209876553e+01
311 252       1.3461111111111107e+01
311 253      -5.6087962962963012e-01
311 254      -6.4814506172839561e+00
311 255       3.3652777777777780e+00
311 292       1.1217962962962964e+01
311 293       5.4344876543209864e+01
311 294       6.6613381477509392e-15
311 295       1.7763568394002505e-15
311 296       2.1438802469135805e+02
311 297       1.0658141036401503e-14
311 298      -1.1217962962962966e+01
311 299       5.4344876543209907e+01
311 300       3.5527136788005009e-15
311 307       2.2435185185185187e+00
311 308      -7.9772469135802453e+01
311 309       0.0000000000000000e+00
311 310       2.6645352591003757e-15
311 312       1.4210854715202004e-14
311 313      -2.2435185185185214e+00
311 314      -7.9772469135802424e+01
311 315       1.7763568394002505e-14
311 352       2.8044907407407402e+00
311 353       2.0317052469135799e+01
311 354      -1.6826944444444443e+01
311 355      -1.1102230246251565e-15
311 356       8.0520339506172860e+01
311 357      -6.7307777777777787e+01
311 358      -2.8044907407407420e+00
311 359       2.0317052469135817e+01
311 360      -1.6826944444444450e+01
311 367       5.6087962962963034e-01
311 368      -6.4814506172839579e+00
311 369      -3.3652777777777754e+00
311 370       8.8817841970012523e-16
311 371      -2.7421543209876575e+01
311 372      -1.3461111111111125e+01
311 373      -5.6087962962963100e-01
311 374      -6.4814506172839597e+00
311 375      -3.3652777777777900e+00
312 312      -3.2507283950617278e+02
312 232       2.8044907407407407e+00
312 233       1.6826944444444440e+01
312 234       2.0317052469135799e+01
312 235      -1.8873791418627661e-15
312 236       6.7307777777777773e+01
312 237       8.0520339506172832e+01
312 238      -2.8044907407407407e+00
312 239       1.6826944444444443e+01
312 240       2.0317052469135799e+01
312 247       5.6089814814814805e+00
312 248      -3.3652777777777803e+00
312 249       2.7172438271604936e+01
312 250      -1.9984014443252818e-15
312 251      -1.3461111111111114e+01
312 252       1.0719401234567900e+02
312 253      -5.6089814814814805e+00
312 254      -3.3652777777777745e+00
312 255       2.7172438271604921e+01
312 292       2.2204460492503131e-16
312 293       9.3258734068513149e-15
312 294      -1.2962901234567898e+01
312 295       8.8817841970012523e-16
312 296       1.0658141036401503e-14
312 297      -5.4843086419753064e+01
312 298       0.0000000000000000e+00
312 299      -4.4408920985006262e-16
312 300      -1.2962901234567886e+01
312 307      -4.4408920985006262e-16
312 308       3.5527136788005009e-15
312 309      -7.9772469135802453e+01
312 310       8.8817841970012523e-16
312 311       1.4210854715202004e-14
312 313      -1.1102230246251565e-15
312 314       1.7763568394002505e-14
312 315      -7.9772469135802439e+01
312 352      -2.8044907407407411e+00
312 353      -1.6826944444444443e+01
312 354       2.0317052469135803e+01
312 355       8.8817841970012523e-16
312 356      -6.7307777777777773e+01
312 357       8.0520339506172832e+01
312 358       2.8044907407407411e+00
312 359      -1.6826944444444450e+01
312 360       2.0317052469135806e+01
312 367      -5.6089814814814805e+00
312 368       3.3652777777777803e+00
312 369       2.7172438271604932e+01
312 370       1.9984014443252818e-15
312 371       1.3461111111111093e+01
312 372       1.0719401234567897e+02
312 373       5.6089814814814822e+00
312 374       3.3652777777777638e+00
312 375       2.7172438271604921e+01
313 313      -7.5285596707818911e+01
313 235       9.4106995884773621e+00
313 236       2.8044907407407402e+00
313 237       2.8044907407407402e+00
313 238       1.7512633744855968e+01
313 239       5.6087962962962867e-01
313 240       5.6087962962962912e-01
313 250       5.3597325102880617e+00
313 251      -5.6087962962963078e-01
313 252       5.6089814814814805e+00
313 253       8.1019341563785954e+00
313 254      -2.8044907407407402e+00
313 255       1.1217592592592589e+00
313 295       1.0719465020576123e+01
313 296       1.1217962962962964e+01
313 297      -1.1102230246251565e-16
313 298       1.6203868312757194e+01
313 299       2.2435185185185191e+00
313 300       1.3322676295501878e-15
313 310      -3.2407736625514389e+01
313 311      -2.2435185185185214e+00
313 312      -1.1102230246251565e-15
313 314      -1.1217962962962961e+01
313 315       1.7763568394002505e-15
313 355       9.4106995884773657e+00
313 356       2.8044907407407407e+00
313 357      -2.8044907407407407e+00
313 358       1.7512633744855972e+01
313 359       5.6087962962962878e-01
313 360      -5.6087962962962934e-01
313 370       5.3597325102880600e+00
313 371      -5.6087962962962923e-01
313 372      -5.6089814814814805e+00
313 373       8.1019341563785918e+00
313 374      -2.8044907407407402e+00
313 375      -1.1217592592592580e+00
314 314      -1.6253641975308642e+02
314 235       2.8044907407407402e+00
314 236       2.0317052469135792e+01
314 237       1.6826944444444440e+01
314 238      -5.6087962962963089e-01
314 239       4.0260169753086416e+01
314 240       3.3653888888888893e+01
314 250       5.6087962962962845e-01
314 251      -6.4814506172839534e+00
314 252       3.3652777777777665e+00
314 253      -2.8044907407407402e+00
314 254      -1.3710771604938277e+01
314 255       6.7305555555555454e+00
314 295       1.1217962962962964e+01
314 296       5.4344876543209843e+01
314 297       2.6645352591003757e-15
314 298      -2.2435185185185187e+00
314 299       1.0719401234567903e+02
314 300       7.1054273576010019e-15
314 310       2.2435185185185160e+00
314 311      -7.9772469135802424e+01
314 312       1.7763568394002505e-14
314 313      -1.1217962962962961e+01
314 315       2.1316282072803006e-14
314 355       2.8044907407407398e+00
314 356       2.0317052469135799e+01
314 357      -1.6826944444444447e+01
314 358      -5.6087962962963067e-01
314 359       4.0260169753086437e+01
314 360      -3.3653888888888901e+01
314 370       5.6087962962963034e-01
314 371      -6.4814506172839597e+00
314 372      -3.3652777777777776e+00
314 373      -2.8044907407407411e+00
314 374      -1.3710771604938284e+01
314 375      -6.7305555555555703e+00
315 315      -1.6253641975308636e+02
315 235       2.8044907407407402e+00
315 236       1.6826944444444436e+01
315 237       2.0317052469135799e+01
315 238      -5.6087962962963012e-01
315 239       3.3653888888888893e+01
315 240       4.0260169753086423e+01
315 250       5.6089814814814805e+00
315 251      -3.3652777777777869e+00
315 252       2.7172438271604921e+01
315 253      -1.1217592592592585e+00
315 254      -6.7305555555555578e+00
315 255       5.3597006172839492e+01
315 295      -2.2204460492503131e-16
315 296       1.3322676295501878e-15
315 297      -1.2962901234567903e+01
315 298       8.8817841970012523e-16
315 299      -3.5527136788005009e-15
315 300      -2.7421543209876546e+01
315 310      -6.6613381477509392e-16
315 311       1.7763568394002505e-14
315 312      -7.9772469135802439e+01
315 313       1.7763568394002505e-15
315 314       2.1316282072803006e-14
315 355      -2.8044907407407407e+00
315 356      -1.6826944444444443e+01
315 357       2.0317052469135803e+01
315 358       5.6087962962963012e-01
315 359      -3.3653888888888886e+01
315 360       4.0260169753086430e+01
315 370      -5.6089814814814805e+00
315 371       3.3652777777777745e+00
315 372       2.7172438271604918e+01
315 373       1.1217592592592609e+00
315 374       6.7305555555555436e+00
315 375       5.3597006172839485e+01
316 316      -3.7642798353909477e+01
316 256       8.1019341563786060e+00
316 257      -2.8044907407407411e+00
316 258      -1.1217592592592585e+00
316 259       5.3597325102880680e+00
316 260      -5.6087962962962801e-01
316 261      -5.6089814814814822e+00
316 271       1.7512633744855975e+01
316 272       5.6087962962962890e-01
316 273      -5.6087962962962923e-01
316 274       9.4106995884773692e+00
316 275       2.8044907407407416e+00
316 276      -2.8044907407407411e+00
316 317      -5.6089814814814840e+00
316 318       5.6089814814814813e+00
316 319      -1.6203868312757209e+01
316 320      -1.1217592592592571e+00
316 321       1.1217592592592589e+00
316 331       8.1019341563786007e+00
316 332       1.1217592592592571e+00
316 333       2.8044907407407402e+00
316 334       5.3597325102880715e+00
316 335       5.6089814814814822e+00
316 336       5.6087962962962945e-01
316 394      -5.5555555555555525e-02
316 395       0.0000000000000000e+00
316 396       0.0000000000000000e+00
316 421       0.0000000000000000e+00
316 422       0.0000000000000000e+00
316 423       0.0000000000000000e+00
317 317      -8.1268209876543253e+01
317 256      -2.8044907407407407e+00
317 257      -1.3710771604938261e+01
317 258      -6.7305555555555632e+00
317 259       5.6087962962963067e-01
317 260      -6.4814506172839454e+00
317 261      -3.3652777777777878e+00
317 271      -5.6087962962963089e-01
317 272       4.0260169753086430e+01
317 273      -3.3653888888888886e+01
317 274       2.8044907407407411e+00
317 275       2.0317052469135817e+01
317 276      -1.6826944444444450e+01
317 316      -5.6089814814814840e+00
317 318       3.3653888888888893e+01
317 319       1.1217592592592613e+00
317 320      -3.9886234567901255e+01
317 321       1.6826944444444454e+01
317 331      -1.1217592592592613e+00
317 332       5.3597006172839507e+01
317 333       6.7305555555555570e+00
317 334       5.6089814814814840e+00
317 335       2.7172438271604957e+01
317 336       3.3652777777777798e+00
317 394       0.0000000000000000e+00
317 395       0.0000000000000000e+00
317 396       5.5555555555555525e-02
317 421       0.0000000000000000e+00
317 422       0.0000000000000000e+00
317 423       0.0000000000000000e+00
318 318      -8.1268209876543253e+01
318 256       1.1217592592592600e+00
318 257       6.7305555555555525e+00
318 258       5.3597006172839521e+01
318 259      -5.6089814814814831e+00
318 260       3.3652777777777718e+00
318 261       2.7172438271604946e+01
318 271       5.6087962962963001e-01
318 272      -3.3653888888888893e+01
318 273       4.0260169753086423e+01
318 274      -2.8044907407407411e+00
318 275      -1.6826944444444447e+01
318 276       2.0317052469135806e+01
318 316       5.6089814814814813e+00
318 317       3.3653888888888893e+01
318 319      -1.1217592592592591e+00
318 320       1.6826944444444450e+01
318 321      -3.9886234567901234e+01
318 331       2.8044907407407402e+00
318 332      -6.7305555555555543e+00
318 333      -1.3710771604938268e+01
318 334      -5.6087962962963012e-01
318 335      -3.3652777777777763e+00
318 336      -6.4814506172839428e+00
318 394       0.0000000000000000e+00
318 395       5.5555555555555525e-02
318 396       0.0000000000000000e+00
318 421       0.0000000000000000e+00
318 422       0.0000000000000000e+00
318 423       0.0000000000000000e+00
319 319      -7.5285596707818968e+01
319 256       5.3597325102880680e+00
319 257       5.6087962962962945e-01
319 258       5.6089814814814831e+00
319 259       1.6203868312757212e+01
319 260      -8.8817841970012523e-16
319 261       8.8817841970012523e-16
319 262       5.3597325102880697e+00
319 263      -5.6087962962962790e-01
319 264      -5.6089814814814822e+00
319 271       9.4106995884773657e+00
319 272      -2.8044907407407416e+00
319 273       2.8044907407407411e+00
319 274       3.5025267489711950e+01
319 275      -1.8873791418627661e-15
319 276       1.2212453270876722e-15
319 277       9.4106995884773728e+00
319 278       2.8044907407407407e+00
319 279      -2.8044907407407407e+00
319 316      -1.6203868312757209e+01
319 317       1.1217592592592613e+00
319 318      -1.1217592592592591e+00
319 320      -8.8817841970012523e-16
319 321      -8.8817841970012523e-16
319 322      -1.6203868312757209e+01
319 323      -1.1217592592592573e+00
319 324       1.1217592592592582e+00
319 331       5.3597325102880591e+00
319 332      -5.6089814814814805e+00
319 333      -5.6087962962963012e-01
319 334       1.6203868312757201e+01
319 335      -4.4408920985006262e-16
319 336      -1.3322676295501878e-15
319 337       5.3597325102880715e+00
319 338       5.6089814814814813e+00
319 339       5.6087962962962923e-01
319 421       0.0000000000000000e+00
319 422       0.0000000000000000e+00
319 423       0.0000000000000000e+00
320 320      -1.6253641975308651e+02
320 256      -5.6087962962962956e-01
320 257      -6.4814506172839463e+00
320 258      -3.3652777777777758e+00
320 259      -4.4408920985006262e-16
320 260      -2.7421543209876518e+01
320 261      -1.3461111111111123e+01
320 262       5.6087962962963067e-01
320 263      -6.4814506172839419e+00
320 264      -3.3652777777777820e+00
320 271      -2.8044907407407416e+00
320 272       2.0317052469135803e+01
320 273      -1.6826944444444447e+01
320 274      -1.9984014443252818e-15
320 275       8.0520339506172888e+01
320 276      -6.7307777777777801e+01
320 277       2.8044907407407411e+00
320 278       2.0317052469135824e+01
320 279      -1.6826944444444454e+01
320 316      -1.1217592592592571e+00
320 317      -3.9886234567901255e+01
320 318       1.6826944444444450e+01
320 319      -8.8817841970012523e-16
320 321       6.7307777777777801e+01
320 322       1.1217592592592609e+00
320 323      -3.9886234567901241e+01
320 324       1.6826944444444447e+01
320 331      -5.6089814814814813e+00
320 332       2.7172438271604918e+01
320 333       3.3652777777777785e+00
320 334       8.8817841970012523e-16
320 335       1.0719401234567903e+02
320 336       1.3461111111111116e+01
320 337       5.6089814814814822e+00
320 338       2.7172438271604957e+01
320 339       3.3652777777777776e+00
320 421       0.0000000000000000e+00
320 422       0.0000000000000000e+00
320 423       0.0000000000000000e+00
321 321      -1.6253641975308653e+02
321 256       5.6089814814814840e+00
321 257       3.3652777777777807e+00
321 258       2.7172438271604946e+01
321 259      -2.2204460492503131e-16
321 260       1.3461111111111105e+01
321 261       1.0719401234567906e+02
321 262      -5.6089814814814822e+00
321 263       3.3652777777777718e+00
321 264       2.7172438271604950e+01
321 271       2.8044907407407411e+00
321 272      -1.6826944444444443e+01
321 273       2.0317052469135803e+01
321 274       3.3306690738754696e-16
321 275      -6.7307777777777801e+01
321 276       8.0520339506172860e+01
321 277      -2.8044907407407407e+00
321 278      -1.6826944444444450e+01
321 279       2.0317052469135810e+01
321 316       1.1217592592592589e+00
321 317       1.6826944444444454e+01
321 318      -3.9886234567901234e+01
321 319      -8.8817841970012523e-16
321 320       6.7307777777777801e+01
321 322      -1.1217592592592591e+00
321 323       1.6826944444444447e+01
321 324      -3.9886234567901234e+01
321 331       5.6087962962962945e-01
321 332      -3.3652777777777749e+00
321 333      -6.4814506172839552e+00
321 334      -1.3322676295501878e-15
321 335      -1.3461111111111109e+01
321 336      -2.7421543209876546e+01
321 337      -5.6087962962962978e-01
321 338      -3.3652777777777798e+00
321 339      -6.4814506172839472e+00
321 421       0.0000000000000000e+00
321 422       0.0000000000000000e+00
321 423       0.0000000000000000e+00
322 322      -7.5285596707818954e+01
322 259       5.3597325102880715e+00
322 260       5.6087962962962923e-01
322 261       5.6089814814814831e+00
322 262       1.6203868312757209e+01
322 263      -8.8817841970012523e-16
322 264      -1.3322676295501878e-15
322 265       5.3597325102880671e+00
322 266      -5.6087962962962934e-01
322 267      -5.6089814814814840e+00
322 274       9.4106995884773692e+00
322 275      -2.8044907407407407e+00
322 276       2.8044907407407411e+00
322 277       3.5025267489711950e+01
322 278      -9.9920072216264089e-16
322 279       7.7715611723760958e-16
322 280       9.4106995884773674e+00
322 281       2.8044907407407411e+00
322 282      -2.8044907407407411e+00
322 319      -1.6203868312757209e+01
322 320       1.1217592592592609e+00
322 321      -1.1217592592592591e+00
322 323      -2.6645352591003757e-15
322 324       1.7763568394002505e-15
322 325      -1.6203868312757205e+01
322 326      -1.1217592592592602e+00
322 327       1.1217592592592600e+00
322 334       5.3597325102880591e+00
322 335      -5.6089814814814805e+00
322 336      -5.6087962962962978e-01
322 337       1.6203868312757201e+01
322 338       8.8817841970012523e-16
322 339      -4.4408920985006262e-16
322 340       5.3597325102880680e+00
322 341       5.6089814814814831e+00
322 342       5.6087962962962945e-01
323 323      -1.6253641975308648e+02
323 259      -5.6087962962962934e-01
323 260      -6.4814506172839419e+00
323 261      -3.3652777777777727e+00
323 262       0.0000000000000000e+00
323 263      -2.7421543209876518e+01
323 264      -1.3461111111111119e+01
323 265       5.6087962962963001e-01
323 266      -6.4814506172839419e+00
323 267      -3.3652777777777789e+00
323 274      -2.8044907407407416e+00
323 275       2.0317052469135810e+01
323 276      -1.6826944444444450e+01
323 277      -1.7763568394002505e-15
323 278       8.0520339506172888e+01
323 279      -6.7307777777777801e+01
323 280       2.8044907407407411e+00
323 281       2.0317052469135795e+01
323 282      -1.6826944444444443e+01
323 319      -1.1217592592592573e+00
323 320      -3.9886234567901241e+01
323 321       1.6826944444444447e+01
323 322      -2.6645352591003757e-15
323 324       6.7307777777777773e+01
323 325       1.1217592592592602e+00
323 326      -3.9886234567901241e+01
323 327       1.6826944444444443e+01
323 334      -5.6089814814814805e+00
323 335       2.7172438271604914e+01
323 336       3.3652777777777767e+00
323 337       8.8817841970012523e-16
323 338       1.0719401234567903e+02
323 339       1.3461111111111119e+01
323 340       5.6089814814814822e+00
323 341       2.7172438271604936e+01
323 342       3.3652777777777803e+00
324 324      -1.6253641975308648e+02
324 259       5.6089814814814822e+00
324 260       3.3652777777777811e+00
324 261       2.7172438271604950e+01
324 262       1.1102230246251565e-15
324 263       1.3461111111111107e+01
324 264       1.0719401234567903e+02
324 265      -5.6089814814814840e+00
324 266       3.3652777777777763e+00
324 267       2.7172438271604943e+01
324 274       2.8044907407407411e+00
324 275      -1.6826944444444447e+01
324 276       2.0317052469135806e+01
324 277       9.9920072216264089e-16
324 278      -6.7307777777777801e+01
324 279       8.0520339506172860e+01
324 280      -2.8044907407407411e+00
324 281      -1.6826944444444443e+01
324 282       2.0317052469135803e+01
324 319       1.1217592592592582e+00
324 320       1.6826944444444447e+01
324 321      -3.9886234567901234e+01
324 322       1.7763568394002505e-15
324 323       6.7307777777777773e+01
324 325      -1.1217592592592607e+00
324 326       1.6826944444444447e+01
324 327      -3.9886234567901212e+01
324 334       5.6087962962962934e-01
324 335      -3.3652777777777771e+00
324 336      -6.4814506172839588e+00
324 337       0.0000000000000000e+00
324 338      -1.3461111111111101e+01
324 339      -2.7421543209876539e+01
324 340      -5.6087962962962989e-01
324 341      -3.3652777777777749e+00
324 342      -6.4814506172839472e+00
325 325      -7.5285596707818939e+01
325 262       5.3597325102880662e+00
325 263       5.6087962962962867e-01
325 264       5.6089814814814840e+00
325 265       1.6203868312757212e+01
325 266       4.4408920985006262e-16
325 267       1.5543122344752192e-15
325 268       5.3597325102880706e+00
325 269      -5.6087962962962956e-01
325 270      -5.6089814814814840e+00
325 277       9.4106995884773692e+00
325 278      -2.8044907407407420e+00
325 279       2.8044907407407420e+00
325 280       3.5025267489711950e+01
325 281      -7.7715611723760958e-16
325 282       5.5511151231257827e-16
325 283       9.4106995884773657e+00
325 284       2.8044907407407407e+00
325 285      -2.8044907407407411e+00
325 322      -1.6203868312757205e+01
325 323       1.1217592592592602e+00
325 324      -1.1217592592592607e+00
325 326       2.6645352591003757e-15
325 327      -1.7763568394002505e-15
325 328      -1.6203868312757205e+01
325 329      -1.1217592592592598e+00
325 330       1.1217592592592593e+00
325 337       5.3597325102880680e+00
325 338      -5.6089814814814840e+00
325 339      -5.6087962962963012e-01
325 340       1.6203868312757194e+01
325 341       4.4408920985006262e-16
325 342      -1.3322676295501878e-15
325 343       5.3597325102880635e+00
325 344       5.6089814814814831e+00
325 345       5.6087962962962945e-01
326 326      -1.6253641975308648e+02
326 262      -5.6087962962963078e-01
326 263      -6.4814506172839419e+00
326 264      -3.3652777777777860e+00
326 265       1.3322676295501878e-15
326 266      -2.7421543209876514e+01
326 267      -1.3461111111111119e+01
326 268       5.6087962962962989e-01
326 269      -6.4814506172839410e+00
326 270      -3.3652777777777736e+00
326 277      -2.8044907407407420e+00
326 278       2.0317052469135806e+01
326 279      -1.6826944444444447e+01
326 280      -1.1102230246251565e-15
326 281       8.0520339506172860e+01
326 282      -6.7307777777777773e+01
326 283       2.8044907407407407e+00
326 284       2.0317052469135803e+01
326 285      -1.6826944444444447e+01
326 322      -1.1217592592592602e+00
326 323      -3.9886234567901241e+01
326 324       1.6826944444444447e+01
326 325       2.6645352591003757e-15
326 327       6.7307777777777801e+01
326 328       1.1217592592592598e+00
326 329      -3.9886234567901234e+01
326 330       1.6826944444444447e+01
326 337      -5.6089814814814822e+00
326 338       2.7172438271604939e+01
326 339       3.3652777777777807e+00
326 340       6.6613381477509392e-16
326 341       1.0719401234567898e+02
326 342       1.3461111111111112e+01
326 343       5.6089814814814822e+00
326 344       2.7172438271604921e+01
326 345       3.3652777777777754e+00
327 327      -1.6253641975308648e+02
327 262       5.6089814814814849e+00
327 263       3.3652777777777692e+00
327 264       2.7172438271604943e+01
327 265       1.5543122344752192e-15
327 266       1.3461111111111119e+01
327 267       1.0719401234567904e+02
327 268      -5.6089814814814831e+00
327 269       3.3652777777777887e+00
327 270       2.7172438271604953e+01
327 277       2.8044907407407416e+00
327 278      -1.6826944444444447e+01
327 279       2.0317052469135803e+01
327 280       5.5511151231257827e-16
327 281      -6.7307777777777801e+01
327 282       8.0520339506172860e+01
327 283      -2.8044907407407407e+00
327 284      -1.6826944444444447e+01
327 285       2.0317052469135803e+01
327 322       1.1217592592592600e+00
327 323       1.6826944444444443e+01
327 324      -3.9886234567901212e+01
327 325      -1.7763568394002505e-15
327 326       6.7307777777777801e+01
327 328      -1.1217592592592600e+00
327 329       1.6826944444444447e+01
327 330      -3.9886234567901241e+01
327 337       5.6087962962962945e-01
327 338      -3.3652777777777749e+00
327 339      -6.4814506172839481e+00
327 340      -1.3322676295501878e-15
327 341      -1.3461111111111109e+01
327 342      -2.7421543209876539e+01
327 343      -5.6087962962963034e-01
327 344      -3.3652777777777803e+00
327 345      -6.4814506172839543e+00
328 328      -3.7642798353909477e+01
328 265       5.3597325102880706e+00
328 266       5.6087962962962856e-01
328 267       5.6089814814814831e+00
328 268       8.1019341563786114e+00
328 269       2.8044907407407411e+00
328 270       1.1217592592592602e+00
328 280       9.4106995884773710e+00
328 281      -2.8044907407407416e+00
328 282       2.8044907407407416e+00
328 283       1.7512633744855972e+01
328 284      -5.6087962962963056e-01
328 285       5.6087962962963023e-01
328 325      -1.6203868312757205e+01
328 326       1.1217592592592598e+00
328 327      -1.1217592592592600e+00
328 329       5.6089814814814858e+00
328 330      -5.6089814814814840e+00
328 340       5.3597325102880635e+00
328 341      -5.6089814814814822e+00
328 342      -5.6087962962963023e-01
328 343       8.1019341563785918e+00
328 344      -1.1217592592592587e+00
328 345      -2.8044907407407416e+00
329 329      -8.1268209876543239e+01
329 265      -5.6087962962963100e-01
329 266      -6.4814506172839419e+00
329 267      -3.3652777777777811e+00
329 268       2.8044907407407416e+00
329 269      -1.3710771604938259e+01
329 270      -6.7305555555555543e+00
329 280      -2.8044907407407420e+00
329 281       2.0317052469135817e+01
329 282      -1.6826944444444450e+01
329 283       5.6087962962962901e-01
329 284       4.0260169753086437e+01
329 285      -3.3653888888888886e+01
329 325      -1.1217592592592598e+00
329 326      -3.9886234567901234e+01
329 327       1.6826944444444447e+01
329 328       5.6089814814814858e+00
329 330       3.3653888888888901e+01
329 340      -5.6089814814814822e+00
329 341       2.7172438271604928e+01
329 342       3.3652777777777758e+00
329 343       1.1217592592592613e+00
329 344       5.3597006172839485e+01
329 345       6.7305555555555499e+00
330 330      -8.1268209876543267e+01
330 265       5.6089814814814840e+00
330 266       3.3652777777777771e+00
330 267       2.7172438271604953e+01
330 268      -1.1217592592592598e+00
330 269       6.7305555555555685e+00
330 270       5.3597006172839542e+01
330 280       2.8044907407407411e+00
330 281      -1.6826944444444454e+01
330 282       2.0317052469135806e+01
330 283      -5.6087962962962934e-01
330 284      -3.3653888888888901e+01
330 285       4.0260169753086430e+01
330 325       1.1217592592592593e+00
330 326       1.6826944444444447e+01
330 327      -3.9886234567901241e+01
330 328      -5.6089814814814840e+00
330 329       3.3653888888888901e+01
330 340       5.6087962962962967e-01
330 341      -3.3652777777777803e+00
330 342      -6.4814506172839526e+00
330 343      -2.8044907407407416e+00
330 344      -6.7305555555555596e+00
330 345      -1.3710771604938280e+01
331 331      -7.5285596707818939e+01
331 256       1.7512633744855968e+01
331 257      -5.6087962962962923e-01
331 258      -5.6087962962962923e-01
331 259       9.4106995884773621e+00
331 260      -2.8044907407407407e+00
331 261      -2.8044907407407411e+00
331 271       1.6203868312757201e+01
331 272       1.7763568394002505e-15
331 273      -2.2435185185185169e+00
331 274       1.0719465020576132e+01
331 275       3.4416913763379853e-15
331 276      -1.1217962962962964e+01
331 286       1.7512633744855975e+01
331 287       5.6087962962962823e-01
331 288      -5.6087962962962812e-01
331 289       9.4106995884773692e+00
331 290       2.8044907407407402e+00
331 291      -2.8044907407407402e+00
331 316       8.1019341563786007e+00
331 317      -1.1217592592592613e+00
331 318       2.8044907407407402e+00
331 319       5.3597325102880591e+00
331 320      -5.6089814814814813e+00
331 321       5.6087962962962945e-01
331 332      -3.5527136788005009e-15
331 333       1.1217962962962963e+01
331 334      -3.2407736625514403e+01
331 335       2.8865798640254070e-15
331 336       2.2435185185185178e+00
331 346       8.1019341563786007e+00
331 347       1.1217592592592558e+00
331 348       2.8044907407407402e+00
331 349       5.3597325102880724e+00
331 350       5.6089814814814831e+00
331 351       5.6087962962962890e-01
331 394      -5.5555555555555559e-02
331 395       0.0000000000000000e+00
331 396       0.0000000000000000e+00
331 397      -5.5555555555555552e-02
331 398       0.0000000000000000e+00
331 399       0.0000000000000000e+00
331 421       0.0000000000000000e+00
331 422       0.0000000000000000e+00
331 423       0.0000000000000000e+00
331 424       0.0000000000000000e+00
331 425       0.0000000000000000e+00
331 426       0.0000000000000000e+00
332 332      -1.6253641975308642e+02
332 256       5.6087962962963001e-01
332 257       4.0260169753086416e+01
332 258       3.3653888888888886e+01
332 259      -2.8044907407407407e+00
332 260       2.0317052469135792e+01
332 261       1.6826944444444436e+01
332 271       8.8817841970012523e-16
332 272      -2.7421543209876543e+01
332 273      -1.5987211554602254e-14
332 274       2.6645352591003757e-15
332 275      -1.2962901234567898e+01
332 276      -2.0872192862952943e-14
332 286      -5.6087962962963145e-01
332 287       4.0260169753086430e+01
332 288      -3.3653888888888886e+01
332 289       2.8044907407407411e+00
332 290       2.0317052469135813e+01
332 291      -1.6826944444444450e+01
332 316       1.1217592592592571e+00
332 317       5.3597006172839507e+01
332 318      -6.7305555555555543e+00
332 319      -5.6089814814814805e+00
332 320       2.7172438271604918e+01
332 321      -3.3652777777777749e+00
332 331      -3.5527136788005009e-15
332 333       2.1316282072803006e-14
332 334       3.1086244689504383e-15
332 335      -7.9772469135802453e+01
332 336       1.7763568394002505e-14
332 346      -1.1217592592592625e+00
332 347       5.3597006172839507e+01
332 348       6.7305555555555561e+00
332 349       5.6089814814814822e+00
332 350       2.7172438271604960e+01
332 351       3.3652777777777780e+00
332 394       0.0000000000000000e+00
332 395       0.0000000000000000e+00
332 396       5.5555555555555559e-02
332 397       0.0000000000000000e+00
332 398       0.0000000000000000e+00
332 399       5.5555555555555552e-02
332 421       0.0000000000000000e+00
332 422       0.0000000000000000e+00
332 423       0.0000000000000000e+00
332 424       0.0000000000000000e+00
332 425       0.0000000000000000e+00
332 426       0.0000000000000000e+00
333 333      -1.6253641975308642e+02
333 256       5.6087962962963012e-01
333 257       3.3653888888888886e+01
333 258       4.0260169753086416e+01
333 259      -2.8044907407407411e+00
333 260       1.6826944444444443e+01
333 261       2.0317052469135799e+01
333 271       2.2435185185185205e+00
333 272      -1.2434497875801753e-14
333 273       1.0719401234567903e+02
333 274      -1.1217962962962964e+01
333 275      -1.7319479184152442e-14
333 276       5.4344876543209878e+01
333 286       5.6087962962963078e-01
333 287      -3.3653888888888893e+01
333 288       4.0260169753086416e+01
333 289      -2.8044907407407389e+00
333 290      -1.6826944444444447e+01
333 291       2.0317052469135806e+01
333 316       2.8044907407407402e+00
333 317       6.7305555555555570e+00
333 318      -1.3710771604938268e+01
333 319      -5.6087962962963012e-01
333 320       3.3652777777777785e+00
333 321      -6.4814506172839552e+00
333 331       1.1217962962962963e+01
333 332       2.1316282072803006e-14
333 334      -2.2435185185185205e+00
333 335       1.4210854715202004e-14
333 336      -7.9772469135802453e+01
333 346       2.8044907407407407e+00
333 347      -6.7305555555555525e+00
333 348      -1.3710771604938264e+01
333 349      -5.6087962962963001e-01
333 350      -3.3652777777777780e+00
333 351      -6.4814506172839401e+00
333 394       0.0000000000000000e+00
333 395       5.5555555555555559e-02
333 396       0.0000000000000000e+00
333 397       0.0000000000000000e+00
333 398       5.5555555555555552e-02
333 399       0.0000000000000000e+00
333 421       0.0000000000000000e+00
333 422       0.0000000000000000e+00
333 423       0.0000000000000000e+00
333 424       0.0000000000000000e+00
333 425       0.0000000000000000e+00
333 426       0.0000000000000000e+00
334 334      -1.5057119341563788e+02
334 256       9.4106995884773639e+00
334 257       2.8044907407407416e+00
334 258       2.8044907407407411e+00
334 259       3.5025267489711936e+01
334 260       9.9920072216264089e-16
334 261       1.1102230246251565e-15
334 262       9.4106995884773639e+00
334 263      -2.8044907407407398e+00
334 264      -2.8044907407407411e+00
334 271       1.0719465020576134e+01
334 272      -5.5511151231257827e-16
334 273       1.1217962962962968e+01
334 274       3.2407736625514410e+01
334 275      -8.8817841970012523e-16
334 276       5.9952043329758453e-15
334 277       1.0719465020576132e+01
334 278       2.7755575615628914e-15
334 279      -1.1217962962962964e+01
334 286       9.4106995884773657e+00
334 287      -2.8044907407407416e+00
334 288       2.8044907407407420e+00
334 289       3.5025267489711950e+01
334 290      -3.6637359812630166e-15
334 291       3.4416913763379853e-15
334 292       9.4106995884773728e+00
334 293       2.8044907407407407e+00
334 294      -2.8044907407407398e+00
334 316       5.3597325102880715e+00
334 317       5.6089814814814840e+00
334 318      -5.6087962962963012e-01
334 319       1.6203868312757201e+01
334 320       8.8817841970012523e-16
334 321      -1.3322676295501878e-15
334 322       5.3597325102880591e+00
334 323      -5.6089814814814805e+00
334 324       5.6087962962962934e-01
334 331      -3.2407736625514403e+01
334 332       3.1086244689504383e-15
334 333      -2.2435185185185205e+00
334 335      -5.3290705182007514e-15
334 336      -9.7699626167013776e-15
334 337      -3.2407736625514417e+01
334 338       2.2204460492503131e-15
334 339       2.2435185185185178e+00
334 346       5.3597325102880617e+00
334 347      -5.6089814814814813e+00
334 348      -5.6087962962963034e-01
334 349       1.6203868312757209e+01
334 350      -4.4408920985006262e-15
334 351      -2.2204460492503131e-15
334 352       5.3597325102880715e+00
334 353       5.6089814814814831e+00
334 354       5.6087962962962923e-01
334 421       0.0000000000000000e+00
334 422       0.0000000000000000e+00
334 423       0.0000000000000000e+00
334 424       0.0000000000000000e+00
334 425       0.0000000000000000e+00
334 426       0.0000000000000000e+00
335 335      -3.2507283950617295e+02
335 256       2.8044907407407416e+00
335 257       2.0317052469135803e+01
335 258       1.6826944444444443e+01
335 259       4.4408920985006262e-16
335 260       8.0520339506172832e+01
335 261       6.7307777777777787e+01
335 262      -2.8044907407407398e+00
335 263       2.0317052469135795e+01
335 264       1.6826944444444447e+01
335 271       4.4408920985006262e-16
335 272      -1.2962901234567898e+01
335 273       8.8817841970012523e-16
335 274      -4.4408920985006262e-16
335 275      -5.4843086419753099e+01
335 276      -3.3750779948604759e-14
335 277       2.8865798640254070e-15
335 278      -1.2962901234567905e+01
335 279      -1.8207657603852567e-14
335 286      -2.8044907407407416e+00
335 287       2.0317052469135803e+01
335 288      -1.6826944444444443e+01
335 289      -3.8857805861880479e-15
335 290       8.0520339506172888e+01
335 291      -6.7307777777777801e+01
335 292       2.8044907407407411e+00
335 293       2.0317052469135824e+01
335 294      -1.6826944444444457e+01
335 316       5.6089814814814822e+00
335 317       2.7172438271604957e+01
335 318      -3.3652777777777763e+00
335 319      -4.4408920985006262e-16
335 320       1.0719401234567903e+02
335 321      -1.3461111111111109e+01
335 322      -5.6089814814814805e+00
335 323       2.7172438271604914e+01
335 324      -3.3652777777777771e+00
335 331       2.8865798640254070e-15
335 332      -7.9772469135802453e+01
335 333       1.4210854715202004e-14
335 334      -5.3290705182007514e-15
335 336       2.8421709430404007e-14
335 337       3.7747582837255322e-15
335 338      -7.9772469135802481e+01
335 339       3.5527136788005009e-15
335 346      -5.6089814814814822e+00
335 347       2.7172438271604921e+01
335 348       3.3652777777777771e+00
335 349      -3.9968028886505635e-15
335 350       1.0719401234567904e+02
335 351       1.3461111111111110e+01
335 352       5.6089814814814822e+00
335 353       2.7172438271604967e+01
335 354       3.3652777777777789e+00
335 421       0.0000000000000000e+00
335 422       0.0000000000000000e+00
335 423       0.0000000000000000e+00
335 424       0.0000000000000000e+00
335 425       0.0000000000000000e+00
335 426       0.0000000000000000e+00
336 336      -3.2507283950617295e+02
336 256       2.8044907407407416e+00
336 257       1.6826944444444447e+01
336 258       2.0317052469135799e+01
336 259       1.1102230246251565e-16
336 260       6.7307777777777801e+01
336 261       8.0520339506172846e+01
336 262      -2.8044907407407407e+00
336 263       1.6826944444444450e+01
336 264       2.0317052469135803e+01
336 271       1.1217962962962966e+01
336 272       2.6645352591003757e-15
336 273       5.4344876543209878e+01
336 274       3.3306690738754696e-15
336 275      -3.1974423109204508e-14
336 276       2.1438802469135811e+02
336 277      -1.1217962962962964e+01
336 278      -1.5987211554602254e-14
336 279       5.4344876543209892e+01
336 286       2.8044907407407416e+00
336 287      -1.6826944444444440e+01
336 288       2.0317052469135799e+01
336 289       2.9976021664879227e-15
336 290      -6.7307777777777801e+01
336 291       8.0520339506172860e+01
336 292      -2.8044907407407398e+00
336 293      -1.6826944444444454e+01
336 294       2.0317052469135810e+01
336 316       5.6087962962962945e-01
336 317       3.3652777777777798e+00
336 318      -6.4814506172839428e+00
336 319      -1.3322676295501878e-15
336 320       1.3461111111111116e+01
336 321      -2.7421543209876546e+01
336 322      -5.6087962962962978e-01
336 323       3.3652777777777767e+00
336 324      -6.4814506172839588e+00
336 331       2.2435185185185178e+00
336 332       1.7763568394002505e-14
336 333      -7.9772469135802453e+01
336 334      -9.7699626167013776e-15
336 335       2.8421709430404007e-14
336 337      -2.2435185185185200e+00
336 338      -3.5527136788005009e-15
336 339      -7.9772469135802481e+01
336 346       5.6087962962962923e-01
336 347      -3.3652777777777758e+00
336 348      -6.4814506172839526e+00
336 349      -8.8817841970012523e-16
336 350      -1.3461111111111116e+01
336 351      -2.7421543209876535e+01
336 352      -5.6087962962963012e-01
336 353      -3.3652777777777816e+00
336 354      -6.4814506172839472e+00
336 421       0.0000000000000000e+00
336 422       0.0000000000000000e+00
336 423       0.0000000000000000e+00
336 424       0.0000000000000000e+00
336 425       0.0000000000000000e+00
336 426       0.0000000000000000e+00
337 337      -1.5057119341563788e+02
337 259       9.4106995884773674e+00
337 260       2.8044907407407407e+00
337 261       2.8044907407407411e+00
337 262       3.5025267489711936e+01
337 263       8.8817841970012523e-16
337 264       6.6613381477509392e-16
337 265       9.4106995884773657e+00
337 266      -2.8044907407407402e+00
337 267      -2.8044907407407411e+00
337 274       1.0719465020576134e+01
337 275       1.1102230246251565e-16
337 276       1.1217962962962964e+01
337 277       3.2407736625514403e+01
337 278       1.3322676295501878e-15
337 279       4.6629367034256575e-15
337 280       1.0719465020576131e+01
337 281       1.4432899320127035e-15
337 282      -1.1217962962962964e+01
337 289       9.4106995884773692e+00
337 290      -2.8044907407407420e+00
337 291       2.8044907407407416e+00
337 292       3.5025267489711958e+01
337 293      -2.9976021664879227e-15
337 294       3.3306690738754696e-15
337 295       9.4106995884773657e+00
337 296       2.8044907407407398e+00
337 297      -2.8044907407407398e+00
337 319       5.3597325102880715e+00
337 320       5.6089814814814822e+00
337 321      -5.6087962962962978e-01
337 322       1.6203868312757201e+01
337 323       8.8817841970012523e-16
337 324       0.0000000000000000e+00
337 325       5.3597325102880680e+00
337 326      -5.6089814814814822e+00
337 327       5.6087962962962945e-01
337 334      -3.2407736625514417e+01
337 335       3.7747582837255322e-15
337 336      -2.2435185185185200e+00
337 338      -2.6645352591003757e-15
337 339      -5.3290705182007514e-15
337 340      -3.2407736625514403e+01
337 341      -4.4408920985006262e-16
337 342       2.2435185185185165e+00
337 349       5.3597325102880609e+00
337 350      -5.6089814814814822e+00
337 351      -5.6087962962963034e-01
337 352       1.6203868312757209e+01
337 353      -3.9968028886505635e-15
337 354      -1.7763568394002505e-15
337 355       5.3597325102880671e+00
337 356       5.6089814814814813e+00
337 357       5.6087962962962890e-01
338 338      -3.2507283950617295e+02
338 259       2.8044907407407411e+00
338 260       2.0317052469135810e+01
338 261       1.6826944444444450e+01
338 262       9.9920072216264089e-16
338 263       8.0520339506172832e+01
338 264       6.7307777777777773e+01
338 265      -2.8044907407407402e+00
338 266       2.0317052469135795e+01
338 267       1.6826944444444440e+01
338 274       2.2204460492503131e-16
338 275      -1.2962901234567909e+01
338 276       3.9968028886505635e-15
338 277       3.1086244689504383e-15
338 278      -5.4843086419753099e+01
338 279      -3.0198066269804258e-14
338 280       1.1102230246251565e-15
338 281      -1.2962901234567900e+01
338 282       1.3322676295501878e-15
338 289      -2.8044907407407420e+00
338 290       2.0317052469135817e+01
338 291      -1.6826944444444454e+01
338 292      -2.8865798640254070e-15
338 293       8.0520339506172888e+01
338 294      -6.7307777777777801e+01
338 295       2.8044907407407402e+00
338 296       2.0317052469135803e+01
338 297      -1.6826944444444447e+01
338 319       5.6089814814814813e+00
338 320       2.7172438271604957e+01
338 321      -3.3652777777777798e+00
338 322       8.8817841970012523e-16
338 323       1.0719401234567903e+02
338 324      -1.3461111111111101e+01
338 325      -5.6089814814814840e+00
338 326       2.7172438271604939e+01
338 327      -3.3652777777777749e+00
338 334       2.2204460492503131e-15
338 335      -7.9772469135802481e+01
338 336      -3.5527136788005009e-15
338 337      -2.6645352591003757e-15
338 339       2.8421709430404007e-14
338 340       2.4424906541753444e-15
338 341      -7.9772469135802453e+01
338 342       0.0000000000000000e+00
338 349      -5.6089814814814822e+00
338 350       2.7172438271604925e+01
338 351       3.3652777777777789e+00
338 352      -2.2204460492503131e-15
338 353       1.0719401234567906e+02
338 354       1.3461111111111126e+01
338 355       5.6089814814814805e+00
338 356       2.7172438271604939e+01
338 357       3.3652777777777811e+00
339 339      -3.2507283950617295e+02
339 259       2.8044907407407411e+00
339 260       1.6826944444444457e+01
339 261       2.0317052469135810e+01
339 262       8.8817841970012523e-16
339 263       6.7307777777777787e+01
339 264       8.0520339506172846e+01
339 265      -2.8044907407407411e+00
339 266       1.6826944444444440e+01
339 267       2.0317052469135799e+01
339 274       1.1217962962962964e+01
339 275       3.9968028886505635e-15
339 276       5.4344876543209892e+01
339 277       5.1070259132757201e-15
339 278      -1.3322676295501878e-14
339 279       2.1438802469135808e+02
339 280      -1.1217962962962966e+01
339 281       8.8817841970012523e-16
339 282       5.4344876543209878e+01
339 289       2.8044907407407411e+00
339 290      -1.6826944444444450e+01
339 291       2.0317052469135810e+01
339 292       2.7755575615628914e-15
339 293      -6.7307777777777815e+01
339 294       8.0520339506172860e+01
339 295      -2.8044907407407398e+00
339 296      -1.6826944444444447e+01
339 297       2.0317052469135806e+01
339 319       5.6087962962962923e-01
339 320       3.3652777777777776e+00
339 321      -6.4814506172839472e+00
339 322      -4.4408920985006262e-16
339 323       1.3461111111111119e+01
339 324      -2.7421543209876539e+01
339 325      -5.6087962962963012e-01
339 326       3.3652777777777807e+00
339 327      -6.4814506172839481e+00
339 334       2.2435185185185178e+00
339 335       3.5527136788005009e-15
339 336      -7.9772469135802481e+01
339 337      -5.3290705182007514e-15
339 338       2.8421709430404007e-14
339 340      -2.2435185185185205e+00
339 341       3.5527136788005009e-15
339 342      -7.9772469135802453e+01
339 349       5.6087962962962967e-01
339 350      -3.3652777777777798e+00
339 351      -6.4814506172839597e+00
339 352      -8.8817841970012523e-16
339 353      -1.3461111111111112e+01
339 354      -2.7421543209876535e+01
339 355      -5.6087962962963034e-01
339 356      -3.3652777777777754e+00
339 357      -6.4814506172839454e+00
340 340      -1.5057119341563782e+02
340 262       9.4106995884773639e+00
340 263       2.8044907407407411e+00
340 264       2.8044907407407411e+00
340 265       3.5025267489711936e+01
340 266       1.5543122344752192e-15
340 267       7.7715611723760958e-16
340 268       9.4106995884773657e+00
340 269      -2.8044907407407411e+00
340 270      -2.8044907407407411e+00
340 277       1.0719465020576131e+01
340 278      -1.6653345369377348e-15
340 279       1.1217962962962966e+01
340 280       3.2407736625514389e+01
340 281       3.9968028886505635e-15
340 282       1.9984014443252818e-15
340 283       1.0719465020576131e+01
340 284       1.4432899320127035e-15
340 285      -1.1217962962962964e+01
340 292       9.4106995884773692e+00
340 293      -2.8044907407407433e+00
340 294       2.8044907407407416e+00
340 295       3.5025267489711943e+01
340 296      -2.5535129566378600e-15
340 297       2.9976021664879227e-15
340 298       9.4106995884773657e+00
340 299       2.8044907407407398e+00
340 300      -2.8044907407407402e+00
340 322       5.3597325102880680e+00
340 323       5.6089814814814822e+00
340 324      -5.6087962962962989e-01
340 325       1.6203868312757194e+01
340 326       6.6613381477509392e-16
340 327      -1.3322676295501878e-15
340 328       5.3597325102880635e+00
340 329      -5.6089814814814822e+00
340 330       5.6087962962962967e-01
340 337      -3.2407736625514403e+01
340 338       2.4424906541753444e-15
340 339      -2.2435185185185205e+00
340 341       8.8817841970012523e-16
340 342      -4.4408920985006262e-15
340 343      -3.2407736625514389e+01
340 344      -1.1102230246251565e-15
340 345       2.2435185185185178e+00
340 352       5.3597325102880697e+00
340 353      -5.6089814814814840e+00
340 354      -5.6087962962963045e-01
340 355       1.6203868312757201e+01
340 356      -2.4424906541753444e-15
340 357      -1.3322676295501878e-15
340 358       5.3597325102880626e+00
340 359       5.6089814814814813e+00
340 360       5.6087962962962901e-01
341 341      -3.2507283950617284e+02
341 262       2.8044907407407411e+00
341 263       2.0317052469135788e+01
341 264       1.6826944444444436e+01
341 265       1.3322676295501878e-15
341 266       8.0520339506172803e+01
341 267       6.7307777777777773e+01
341 268      -2.8044907407407411e+00
341 269       2.0317052469135803e+01
341 270       1.6826944444444443e+01
341 277      -1.4432899320127035e-15
341 278      -1.2962901234567902e+01
341 279      -1.0214051826551440e-14
341 280       4.8849813083506888e-15
341 281      -5.4843086419753092e+01
341 282      -2.2204460492503131e-14
341 283       5.5511151231257827e-16
341 284      -1.2962901234567902e+01
341 285       4.4408920985006262e-15
341 292      -2.8044907407407429e+00
341 293       2.0317052469135810e+01
341 294      -1.6826944444444450e+01
341 295      -2.5535129566378600e-15
341 296       8.0520339506172874e+01
341 297      -6.7307777777777787e+01
341 298       2.8044907407407398e+00
341 299       2.0317052469135803e+01
341 300      -1.6826944444444443e+01
341 322       5.6089814814814831e+00
341 323       2.7172438271604936e+01
341 324      -3.3652777777777749e+00
341 325       4.4408920985006262e-16
341 326       1.0719401234567898e+02
341 327      -1.3461111111111109e+01
341 328      -5.6089814814814822e+00
341 329       2.7172438271604928e+01
341 330      -3.3652777777777803e+00
341 337      -4.4408920985006262e-16
341 338      -7.9772469135802453e+01
341 339       3.5527136788005009e-15
341 340       8.8817841970012523e-16
341 342       3.5527136788005009e-14
341 343       0.0000000000000000e+00
341 344      -7.9772469135802439e+01
341 345       1.4210854715202004e-14
341 352      -5.6089814814814831e+00
341 353       2.7172438271604943e+01
341 354       3.3652777777777820e+00
341 355      -1.7763568394002505e-15
341 356       1.0719401234567901e+02
341 357       1.3461111111111116e+01
341 358       5.6089814814814813e+00
341 359       2.7172438271604925e+01
341 360       3.3652777777777745e+00
342 342      -3.2507283950617284e+02
342 262       2.8044907407407416e+00
342 263       1.6826944444444436e+01
342 264       2.0317052469135799e+01
342 265       9.9920072216264089e-16
342 266       6.7307777777777773e+01
342 267       8.0520339506172846e+01
342 268      -2.8044907407407411e+00
342 269       1.6826944444444447e+01
342 270       2.0317052469135803e+01
342 277       1.1217962962962968e+01
342 278      -1.1990408665951691e-14
342 279       5.4344876543209878e+01
342 280       1.5543122344752192e-15
342 281      -1.2434497875801753e-14
342 282       2.1438802469135800e+02
342 283      -1.1217962962962964e+01
342 284       7.5495165674510645e-15
342 285       5.4344876543209871e+01
342 292       2.8044907407407416e+00
342 293      -1.6826944444444450e+01
342 294       2.0317052469135806e+01
342 295       2.3314683517128287e-15
342 296      -6.7307777777777801e+01
342 297       8.0520339506172832e+01
342 298      -2.8044907407407398e+00
342 299      -1.6826944444444447e+01
342 300       2.0317052469135803e+01
342 322       5.6087962962962945e-01
342 323       3.3652777777777803e+00
342 324      -6.4814506172839472e+00
342 325      -1.3322676295501878e-15
342 326       1.3461111111111112e+01
342 327      -2.7421543209876539e+01
342 328      -5.6087962962963023e-01
342 329       3.3652777777777758e+00
342 330      -6.4814506172839526e+00
342 337       2.2435185185185165e+00
342 338       0.0000000000000000e+00
342 339      -7.9772469135802453e+01
342 340      -4.4408920985006262e-15
342 341       3.5527136788005009e-14
342 343      -2.2435185185185205e+00
342 344       1.4210854715202004e-14
342 345      -7.9772469135802453e+01
342 352       5.6087962962962912e-01
342 353      -3.3652777777777736e+00
342 354      -6.4814506172839446e+00
342 355      -4.4408920985006262e-16
342 356      -1.3461111111111105e+01
342 357      -2.7421543209876525e+01
342 358      -5.6087962962963012e-01
342 359      -3.3652777777777807e+00
342 360      -6.4814506172839499e+00
343 343      -7.5285596707818911e+01
343 265       9.4106995884773621e+00
343 266       2.8044907407407411e+00
343 267       2.8044907407407416e+00
343 268       1.7512633744855965e+01
343 269       5.6087962962963023e-01
343 270       5.6087962962963023e-01
343 280       1.0719465020576131e+01
343 281      -2.4424906541753444e-15
343 282       1.1217962962962968e+01
343 283       1.6203868312757198e+01
343 284       4.4408920985006262e-16
343 285       2.2435185185185214e+00
343 295       9.4106995884773710e+00
343 296      -2.8044907407407429e+00
343 297       2.8044907407407411e+00
343 298       1.7512633744855968e+01
343 299      -5.6087962962963156e-01
343 300       5.6087962962963123e-01
343 325       5.3597325102880635e+00
343 326       5.6089814814814822e+00
343 327      -5.6087962962963034e-01
343 328       8.1019341563785918e+00
343 329       1.1217592592592613e+00
343 330      -2.8044907407407416e+00
343 340      -3.2407736625514389e+01
343 341       0.0000000000000000e+00
343 342      -2.2435185185185205e+00
343 344       3.5527136788005009e-15
343 345      -1.1217962962962968e+01
343 355       5.3597325102880653e+00
343 356      -5.6089814814814822e+00
343 357      -5.6087962962963034e-01
343 358       8.1019341563785989e+00
343 359      -1.1217592592592602e+00
343 360      -2.8044907407407416e+00
344 344      -1.6253641975308636e+02
344 265       2.8044907407407407e+00
344 266       2.0317052469135788e+01
344 267       1.6826944444444440e+01
344 268      -5.6087962962962934e-01
344 269       4.0260169753086409e+01
344 270       3.3653888888888886e+01
344 280      -1.8873791418627661e-15
344 281      -1.2962901234567902e+01
344 282      -1.8207657603852567e-14
344 283       1.3322676295501878e-15
344 284      -2.7421543209876550e+01
344 285      -1.0658141036401503e-14
344 295      -2.8044907407407420e+00
344 296       2.0317052469135817e+01
344 297      -1.6826944444444447e+01
344 298       5.6087962962962790e-01
344 299       4.0260169753086437e+01
344 300      -3.3653888888888886e+01
344 325       5.6089814814814831e+00
344 326       2.7172438271604921e+01
344 327      -3.3652777777777803e+00
344 328      -1.1217592592592587e+00
344 329       5.3597006172839485e+01
344 330      -6.7305555555555596e+00
344 340      -1.1102230246251565e-15
344 341      -7.9772469135802439e+01
344 342       1.4210854715202004e-14
344 343       3.5527136788005009e-15
344 345       3.5527136788005009e-14
344 355      -5.6089814814814831e+00
344 356       2.7172438271604928e+01
344 357       3.3652777777777754e+00
344 358       1.1217592592592591e+00
344 359       5.3597006172839500e+01
344 360       6.7305555555555490e+00
345 345      -1.6253641975308642e+02
345 265       2.8044907407407411e+00
345 266       1.6826944444444440e+01
345 267       2.0317052469135799e+01
345 268      -5.6087962962962934e-01
345 269       3.3653888888888893e+01
345 270       4.0260169753086423e+01
345 280       1.1217962962962966e+01
345 281      -1.7319479184152442e-14
345 282       5.4344876543209871e+01
345 283      -2.2435185185185165e+00
345 284      -5.3290705182007514e-15
345 285       1.0719401234567900e+02
345 295       2.8044907407407411e+00
345 296      -1.6826944444444450e+01
345 297       2.0317052469135806e+01
345 298      -5.6087962962962790e-01
345 299      -3.3653888888888901e+01
345 300       4.0260169753086416e+01
345 325       5.6087962962962945e-01
345 326       3.3652777777777754e+00
345 327      -6.4814506172839543e+00
345 328      -2.8044907407407416e+00
345 329       6.7305555555555499e+00
345 330      -1.3710771604938280e+01
345 340       2.2435185185185178e+00
345 341       1.4210854715202004e-14
345 342      -7.9772469135802453e+01
345 343      -1.1217962962962968e+01
345 344       3.5527136788005009e-14
345 355       5.6087962962962923e-01
345 356      -3.3652777777777803e+00
345 357      -6.4814506172839499e+00
345 358      -2.8044907407407411e+00
345 359      -6.7305555555555596e+00
345 360      -1.3710771604938268e+01
346 346      -7.5285596707818911e+01
346 271       1.7512633744855968e+01
346 272      -5.6087962962963001e-01
346 273      -5.6087962962963034e-01
346 274       9.4106995884773621e+00
346 275      -2.8044907407407407e+00
346 276      -2.8044907407407411e+00
346 286       1.6203868312757198e+01
346 287       8.8817841970012523e-16
346 288      -2.2435185185185178e+00
346 289       1.0719465020576129e+01
346 290       3.3306690738754696e-15
346 291      -1.1217962962962963e+01
346 301       1.7512633744855972e+01
346 302       5.6087962962962956e-01
346 303      -5.6087962962962912e-01
346 304       9.4106995884773692e+00
346 305       2.8044907407407416e+00
346 306      -2.8044907407407411e+00
346 331       8.1019341563786007e+00
346 332      -1.1217592592592625e+00
346 333       2.8044907407407407e+00
346 334       5.3597325102880617e+00
346 335      -5.6089814814814822e+00
346 336       5.6087962962962923e-01
346 347      -3.5527136788005009e-15
346 348       1.1217962962962964e+01
346 349      -3.2407736625514403e+01
346 350       3.7747582837255322e-15
346 351       2.2435185185185178e+00
346 361       8.1019341563786043e+00
346 362       1.1217592592592582e+00
346 363       2.8044907407407402e+00
346 364       5.3597325102880715e+00
346 365       5.6089814814814822e+00
346 366       5.6087962962962956e-01
346 397      -5.5555555555555525e-02
346 398       0.0000000000000000e+00
346 399       0.0000000000000000e+00
346 400      -5.5555555555555525e-02
346 401       0.0000000000000000e+00
346 402       0.0000000000000000e+00
346 424       0.0000000000000000e+00
346 425       0.0000000000000000e+00
346 426       0.0000000000000000e+00
346 427       0.0000000000000000e+00
346 428       0.0000000000000000e+00
346 429       0.0000000000000000e+00
347 347      -1.6253641975308642e+02
347 271       5.6087962962962878e-01
347 272       4.0260169753086416e+01
347 273       3.3653888888888879e+01
347 274      -2.8044907407407402e+00
347 275       2.0317052469135788e+01
347 276       1.6826944444444440e+01
347 286       1.3322676295501878e-15
347 287      -2.7421543209876546e+01
347 288      -1.5099033134902129e-14
347 289       3.1086244689504383e-15
347 290      -1.2962901234567900e+01
347 291      -2.0428103653102880e-14
347 301      -5.6087962962963034e-01
347 302       4.0260169753086423e+01
347 303      -3.3653888888888879e+01
347 304       2.8044907407407407e+00
347 305       2.0317052469135817e+01
347 306      -1.6826944444444447e+01
347 331       1.1217592592592558e+00
347 332       5.3597006172839507e+01
347 333      -6.7305555555555525e+00
347 334      -5.6089814814814813e+00
347 335       2.7172438271604921e+01
347 336      -3.3652777777777758e+00
347 346      -3.5527136788005009e-15
347 348       2.8421709430404007e-14
347 349       4.4408920985006262e-15
347 350      -7.9772469135802453e+01
347 351       1.7763568394002505e-14
347 361      -1.1217592592592602e+00
347 362       5.3597006172839521e+01
347 363       6.7305555555555534e+00
347 364       5.6089814814814840e+00
347 365       2.7172438271604960e+01
347 366       3.3652777777777780e+00
347 397       0.0000000000000000e+00
347 398       0.0000000000000000e+00
347 399       5.5555555555555525e-02
347 400       0.0000000000000000e+00
347 401       0.0000000000000000e+00
347 402       5.5555555555555525e-02
347 424       0.0000000000000000e+00
347 425       0.0000000000000000e+00
347 426       0.0000000000000000e+00
347 427       0.0000000000000000e+00
347 428       0.0000000000000000e+00
347 429       0.0000000000000000e+00
348 348      -1.6253641975308642e+02
348 271       5.6087962962962845e-01
348 272       3.3653888888888886e+01
348 273       4.0260169753086416e+01
348 274      -2.8044907407407411e+00
348 275       1.6826944444444440e+01
348 276       2.0317052469135795e+01
348 286       2.2435185185185200e+00
348 287      -9.7699626167013776e-15
348 288       1.0719401234567900e+02
348 289      -1.1217962962962964e+01
348 290      -1.5987211554602254e-14
348 291       5.4344876543209871e+01
348 301       5.6087962962962967e-01
348 302      -3.3653888888888893e+01
348 303       4.0260169753086416e+01
348 304      -2.8044907407407407e+00
348 305      -1.6826944444444447e+01
348 306       2.0317052469135803e+01
348 331       2.8044907407407402e+00
348 332       6.7305555555555561e+00
348 333      -1.3710771604938264e+01
348 334      -5.6087962962963034e-01
348 335       3.3652777777777771e+00
348 336      -6.4814506172839526e+00
348 346       1.1217962962962964e+01
348 347       2.8421709430404007e-14
348 349      -2.2435185185185196e+00
348 350       1.7763568394002505e-14
348 351      -7.9772469135802453e+01
348 361       2.8044907407407402e+00
348 362      -6.7305555555555596e+00
348 363      -1.3710771604938257e+01
348 364      -5.6087962962962978e-01
348 365      -3.3652777777777780e+00
348 366      -6.4814506172839428e+00
348 397       0.0000000000000000e+00
348 398       5.5555555555555525e-02
348 399       0.0000000000000000e+00
348 400       0.0000000000000000e+00
348 401       5.5555555555555525e-02
348 402       0.0000000000000000e+00
348 424       0.0000000000000000e+00
348 425       0.0000000000000000e+00
348 426       0.0000000000000000e+00
348 427       0.0000000000000000e+00
348 428       0.0000000000000000e+00
348 429       0.0000000000000000e+00
349 349      -1.5057119341563788e+02
349 271       9.4106995884773639e+00
349 272       2.8044907407407411e+00
349 273       2.8044907407407407e+00
349 274       3.5025267489711936e+01
349 275      -9.9920072216264089e-16
349 276      -1.3322676295501878e-15
349 277       9.4106995884773657e+00
349 278      -2.8044907407407402e+00
349 279      -2.8044907407407416e+00
349 286       1.0719465020576131e+01
349 287       1.1102230246251565e-16
349 288       1.1217962962962966e+01
349 289       3.2407736625514396e+01
349 290      -4.4408920985006262e-16
349 291       1.5543122344752192e-15
349 292       1.0719465020576132e+01
349 293       3.5527136788005009e-15
349 294      -1.1217962962962964e+01
349 301       9.4106995884773657e+00
349 302      -2.8044907407407416e+00
349 303       2.8044907407407411e+00
349 304       3.5025267489711950e+01
349 305      -1.7763568394002505e-15
349 306       5.5511151231257827e-16
349 307       9.4106995884773745e+00
349 308       2.8044907407407407e+00
349 309      -2.8044907407407402e+00
349 331       5.3597325102880724e+00
349 332       5.6089814814814822e+00
349 333      -5.6087962962963001e-01
349 334       1.6203868312757209e+01
349 335      -3.9968028886505635e-15
349 336      -8.8817841970012523e-16
349 337       5.3597325102880609e+00
349 338      -5.6089814814814822e+00
349 339       5.6087962962962967e-01
349 346      -3.2407736625514403e+01
349 347       4.4408920985006262e-15
349 348      -2.2435185185185196e+00
349 350      -7.1054273576010019e-15
349 351       0.0000000000000000e+00
349 352      -3.2407736625514417e+01
349 353       4.8849813083506888e-15
349 354       2.2435185185185187e+00
349 361       5.3597325102880609e+00
349 362      -5.6089814814814822e+00
349 363      -5.6087962962962967e-01
349 364       1.6203868312757209e+01
349 365      -4.4408920985006262e-16
349 366      -8.8817841970012523e-16
349 367       5.3597325102880715e+00
349 368       5.6089814814814822e+00
349 369       5.6087962962962934e-01
349 424       0.0000000000000000e+00
349 425       0.0000000000000000e+00
349 426       0.0000000000000000e+00
349 427       0.0000000000000000e+00
349 428       0.0000000000000000e+00
349 429       0.0000000000000000e+00
350 350      -3.2507283950617295e+02
350 271       2.8044907407407407e+00
350 272       2.0317052469135803e+01
350 273       1.6826944444444443e+01
350 274      -9.9920072216264089e-16
350 275       8.0520339506172832e+01
350 276       6.7307777777777787e+01
350 277      -2.8044907407407402e+00
350 278       2.0317052469135803e+01
350 279       1.6826944444444447e+01
350 286       5.5511151231257827e-16
350 287      -1.2962901234567902e+01
350 288      -8.8817841970012523e-16
350 289       2.2204460492503131e-15
350 290      -5.4843086419753121e+01
350 291      -4.4408920985006262e-14
350 292       3.2196467714129540e-15
350 293      -1.2962901234567912e+01
350 294      -1.6875389974302379e-14
350 301      -2.8044907407407416e+00
350 302       2.0317052469135803e+01
350 303      -1.6826944444444447e+01
350 304      -2.3314683517128287e-15
350 305       8.0520339506172888e+01
350 306      -6.7307777777777801e+01
350 307       2.8044907407407416e+00
350 308       2.0317052469135827e+01
350 309      -1.6826944444444457e+01
350 331       5.6089814814814831e+00
350 332       2.7172438271604960e+01
350 333      -3.3652777777777780e+00
350 334      -4.4408920985006262e-15
350 335       1.0719401234567904e+02
350 336      -1.3461111111111116e+01
350 337      -5.6089814814814822e+00
350 338       2.7172438271604925e+01
350 339      -3.3652777777777798e+00
350 346       3.7747582837255322e-15
350 347      -7.9772469135802453e+01
350 348       1.7763568394002505e-14
350 349      -7.1054273576010019e-15
350 351       4.9737991503207013e-14
350 352       4.8849813083506888e-15
350 353      -7.9772469135802481e+01
350 354       3.5527136788005009e-15
350 361      -5.6089814814814813e+00
350 362       2.7172438271604918e+01
350 363       3.3652777777777776e+00
350 364      -6.6613381477509392e-16
350 365       1.0719401234567906e+02
350 366       1.3461111111111119e+01
350 367       5.6089814814814840e+00
350 368       2.7172438271604964e+01
350 369       3.3652777777777789e+00
350 424       0.0000000000000000e+00
350 425       0.0000000000000000e+00
350 426       0.0000000000000000e+00
350 427       0.0000000000000000e+00
350 428       0.0000000000000000e+00
350 429       0.0000000000000000e+00
351 351      -3.2507283950617295e+02
351 271       2.8044907407407402e+00
351 272       1.6826944444444443e+01
351 273       2.0317052469135799e+01
351 274      -1.8873791418627661e-15
351 275       6.7307777777777787e+01
351 276       8.0520339506172846e+01
351 277      -2.8044907407407407e+00
351 278       1.6826944444444450e+01
351 279       2.0317052469135810e+01
351 286       1.1217962962962964e+01
351 287       4.4408920985006262e-15
351 288       5.4344876543209864e+01
351 289       3.7747582837255322e-15
351 290      -2.7533531010703882e-14
351 291       2.1438802469135805e+02
351 292      -1.1217962962962964e+01
351 293      -1.7319479184152442e-14
351 294       5.4344876543209892e+01
351 301       2.8044907407407411e+00
351 302      -1.6826944444444440e+01
351 303       2.0317052469135799e+01
351 304       1.1102230246251565e-16
351 305      -6.7307777777777801e+01
351 306       8.0520339506172874e+01
351 307      -2.8044907407407407e+00
351 308      -1.6826944444444454e+01
351 309       2.0317052469135810e+01
351 331       5.6087962962962890e-01
351 332       3.3652777777777780e+00
351 333      -6.4814506172839401e+00
351 334      -2.2204460492503131e-15
351 335       1.3461111111111110e+01
351 336      -2.7421543209876535e+01
351 337      -5.6087962962963034e-01
351 338       3.3652777777777789e+00
351 339      -6.4814506172839597e+00
351 346       2.2435185185185178e+00
351 347       1.7763568394002505e-14
351 348      -7.9772469135802453e+01
351 349       0.0000000000000000e+00
351 350       4.9737991503207013e-14
351 352      -2.2435185185185187e+00
351 353      -3.5527136788005009e-15
351 354      -7.9772469135802481e+01
351 361       5.6087962962962967e-01
351 362      -3.3652777777777758e+00
351 363      -6.4814506172839534e+00
351 364      -4.4408920985006262e-16
351 365      -1.3461111111111116e+01
351 366      -2.7421543209876539e+01
351 367      -5.6087962962963023e-01
351 368      -3.3652777777777807e+00
351 369      -6.4814506172839463e+00
351 424       0.0000000000000000e+00
351 425       0.0000000000000000e+00
351 426       0.0000000000000000e+00
351 427       0.0000000000000000e+00
351 428       0.0000000000000000e+00
351 429       0.0000000000000000e+00
352 352      -1.5057119341563788e+02
352 274       9.4106995884773692e+00
352 275       2.8044907407407411e+00
352 276       2.8044907407407402e+00
352 277       3.5025267489711936e+01
352 278      -2.2204460492503131e-16
352 279      -1.3322676295501878e-15
352 280       9.4106995884773674e+00
352 281      -2.8044907407407407e+00
352 282      -2.8044907407407411e+00
352 289       1.0719465020576134e+01
352 290       3.3306690738754696e-16
352 291       1.1217962962962964e+01
352 292       3.2407736625514403e+01
352 293       8.8817841970012523e-16
352 294       3.3306690738754696e-15
352 295       1.0719465020576127e+01
352 296       1.3322676295501878e-15
352 297      -1.1217962962962964e+01
352 304       9.4106995884773692e+00
352 305      -2.8044907407407411e+00
352 306       2.8044907407407411e+00
352 307       3.5025267489711950e+01
352 308      -7.7715611723760958e-16
352 309       7.7715611723760958e-16
352 310       9.4106995884773674e+00
352 311       2.8044907407407402e+00
352 312      -2.8044907407407411e+00
352 334       5.3597325102880715e+00
352 335       5.6089814814814822e+00
352 336      -5.6087962962963012e-01
352 337       1.6203868312757209e+01
352 338      -2.2204460492503131e-15
352 339      -8.8817841970012523e-16
352 340       5.3597325102880697e+00
352 341      -5.6089814814814831e+00
352 342       5.6087962962962912e-01
352 349      -3.2407736625514417e+01
352 350       4.8849813083506888e-15
352 351      -2.2435185185185187e+00
352 353      -3.5527136788005009e-15
352 354      -1.7763568394002505e-15
352 355      -3.2407736625514403e+01
352 356      -6.6613381477509392e-16
352 357       2.2435185185185191e+00
352 364       5.3597325102880609e+00
352 365      -5.6089814814814822e+00
352 366      -5.6087962962963001e-01
352 367       1.6203868312757209e+01
352 368      -4.4408920985006262e-16
352 369      -4.4408920985006262e-16
352 370       5.3597325102880680e+00
352 371       5.6089814814814831e+00
352 372       5.6087962962962967e-01
353 353      -3.2507283950617295e+02
353 274       2.8044907407407407e+00
353 275       2.0317052469135813e+01
353 276       1.6826944444444454e+01
353 277      -8.8817841970012523e-16
353 278       8.0520339506172832e+01
353 279       6.7307777777777773e+01
353 280      -2.8044907407407411e+00
353 281       2.0317052469135795e+01
353 282       1.6826944444444440e+01
353 289       9.9920072216264089e-16
353 290      -1.2962901234567912e+01
353 291       4.8849813083506888e-15
353 292       1.3322676295501878e-15
353 293      -5.4843086419753114e+01
353 294      -1.0658141036401503e-14
353 295       1.3322676295501878e-15
353 296      -1.2962901234567903e+01
353 297       1.7763568394002505e-15
353 304      -2.8044907407407416e+00
353 305       2.0317052469135813e+01
353 306      -1.6826944444444454e+01
353 307      -1.7763568394002505e-15
353 308       8.0520339506172888e+01
353 309      -6.7307777777777801e+01
353 310       2.8044907407407411e+00
353 311       2.0317052469135799e+01
353 312      -1.6826944444444443e+01
353 334       5.6089814814814831e+00
353 335       2.7172438271604967e+01
353 336      -3.3652777777777816e+00
353 337      -3.9968028886505635e-15
353 338       1.0719401234567906e+02
353 339      -1.3461111111111112e+01
353 340      -5.6089814814814840e+00
353 341       2.7172438271604943e+01
353 342      -3.3652777777777736e+00
353 349       4.8849813083506888e-15
353 350      -7.9772469135802481e+01
353 351      -3.5527136788005009e-15
353 352      -3.5527136788005009e-15
353 354       0.0000000000000000e+00
353 355       1.1102230246251565e-15
353 356      -7.9772469135802467e+01
353 357       0.0000000000000000e+00
353 364      -5.6089814814814805e+00
353 365       2.7172438271604921e+01
353 366       3.3652777777777780e+00
353 367      -2.2204460492503131e-16
353 368       1.0719401234567904e+02
353 369       1.3461111111111123e+01
353 370       5.6089814814814822e+00
353 371       2.7172438271604939e+01
353 372       3.3652777777777820e+00
354 354      -3.2507283950617295e+02
354 274       2.8044907407407402e+00
354 275       1.6826944444444457e+01
354 276       2.0317052469135810e+01
354 277      -1.4432899320127035e-15
354 278       6.7307777777777787e+01
354 279       8.0520339506172846e+01
354 280      -2.8044907407407411e+00
354 281       1.6826944444444436e+01
354 282       2.0317052469135799e+01
354 289       1.1217962962962964e+01
354 290      -1.3322676295501878e-15
354 291       5.4344876543209892e+01
354 292       3.7747582837255322e-15
354 293      -1.5987211554602254e-14
354 294       2.1438802469135805e+02
354 295      -1.1217962962962963e+01
354 296       3.1086244689504383e-15
354 297       5.4344876543209864e+01
354 304       2.8044907407407411e+00
354 305      -1.6826944444444450e+01
354 306       2.0317052469135810e+01
354 307       6.6613381477509392e-16
354 308      -6.7307777777777801e+01
354 309       8.0520339506172860e+01
354 310      -2.8044907407407407e+00
354 311      -1.6826944444444443e+01
354 312       2.0317052469135803e+01
354 334       5.6087962962962923e-01
354 335       3.3652777777777789e+00
354 336      -6.4814506172839472e+00
354 337      -1.7763568394002505e-15
354 338       1.3461111111111126e+01
354 339      -2.7421543209876535e+01
354 340      -5.6087962962963045e-01
354 341       3.3652777777777820e+00
354 342      -6.4814506172839446e+00
354 349       2.2435185185185187e+00
354 350       3.5527136788005009e-15
354 351      -7.9772469135802481e+01
354 352      -1.7763568394002505e-15
354 353       0.0000000000000000e+00
354 355      -2.2435185185185187e+00
354 356       0.0000000000000000e+00
354 357      -7.9772469135802439e+01
354 364       5.6087962962962956e-01
354 365      -3.3652777777777789e+00
354 366      -6.4814506172839579e+00
354 367      -4.4408920985006262e-16
354 368      -1.3461111111111101e+01
354 369      -2.7421543209876532e+01
354 370      -5.6087962962962967e-01
354 371      -3.3652777777777740e+00
354 372      -6.4814506172839454e+00
355 355      -1.5057119341563782e+02
355 277       9.4106995884773639e+00
355 278       2.8044907407407407e+00
355 279       2.8044907407407407e+00
355 280       3.5025267489711929e+01
355 281       2.2204460492503131e-16
355 282      -1.6653345369377348e-15
355 283       9.4106995884773657e+00
355 284      -2.8044907407407407e+00
355 285      -2.8044907407407411e+00
355 292       1.0719465020576127e+01
355 293      -1.7763568394002505e-15
355 294       1.1217962962962964e+01
355 295       3.2407736625514389e+01
355 296       3.9968028886505635e-15
355 297       2.6645352591003757e-15
355 298       1.0719465020576129e+01
355 299       9.9920072216264089e-16
355 300      -1.1217962962962964e+01
355 307       9.4106995884773692e+00
355 308      -2.8044907407407424e+00
355 309       2.8044907407407416e+00
355 310       3.5025267489711943e+01
355 311      -1.1102230246251565e-15
355 312       8.8817841970012523e-16
355 313       9.4106995884773657e+00
355 314       2.8044907407407398e+00
355 315      -2.8044907407407407e+00
355 337       5.3597325102880671e+00
355 338       5.6089814814814805e+00
355 339      -5.6087962962963034e-01
355 340       1.6203868312757201e+01
355 341      -1.7763568394002505e-15
355 342      -4.4408920985006262e-16
355 343       5.3597325102880653e+00
355 344      -5.6089814814814831e+00
355 345       5.6087962962962923e-01
355 352      -3.2407736625514403e+01
355 353       1.1102230246251565e-15
355 354      -2.2435185185185187e+00
355 356       2.6645352591003757e-15
355 357       0.0000000000000000e+00
355 358      -3.2407736625514389e+01
355 359      -4.4408920985006262e-16
355 360       2.2435185185185187e+00
355 367       5.3597325102880680e+00
355 368      -5.6089814814814822e+00
355 369      -5.6087962962962978e-01
355 370       1.6203868312757201e+01
355 371      -4.4408920985006262e-16
355 372      -8.8817841970012523e-16
355 373       5.3597325102880635e+00
355 374       5.6089814814814822e+00
355 375       5.6087962962962967e-01
356 356      -3.2507283950617284e+02
356 277       2.8044907407407407e+00
356 278       2.0317052469135788e+01
356 279       1.6826944444444436e+01
356 280      -3.3306690738754696e-16
356 281       8.0520339506172803e+01
356 282       6.7307777777777744e+01
356 283      -2.8044907407407411e+00
356 284       2.0317052469135803e+01
356 285       1.6826944444444443e+01
356 292      -1.2212453270876722e-15
356 293      -1.2962901234567905e+01
356 294      -9.7699626167013776e-15
356 295       5.3290705182007514e-15
356 296      -5.4843086419753106e+01
356 297      -1.6875389974302379e-14
356 298       7.7715611723760958e-16
356 299      -1.2962901234567902e+01
356 300       2.6645352591003757e-15
356 307      -2.8044907407407420e+00
356 308       2.0317052469135810e+01
356 309      -1.6826944444444450e+01
356 310      -9.9920072216264089e-16
356 311       8.0520339506172860e+01
356 312      -6.7307777777777773e+01
356 313       2.8044907407407407e+00
356 314       2.0317052469135799e+01
356 315      -1.6826944444444443e+01
356 337       5.6089814814814813e+00
356 338       2.7172438271604939e+01
356 339      -3.3652777777777754e+00
356 340      -2.4424906541753444e-15
356 341       1.0719401234567901e+02
356 342      -1.3461111111111105e+01
356 343      -5.6089814814814822e+00
356 344       2.7172438271604928e+01
356 345      -3.3652777777777803e+00
356 352      -6.6613381477509392e-16
356 353      -7.9772469135802467e+01
356 354       0.0000000000000000e+00
356 355       2.6645352591003757e-15
356 357       4.2632564145606011e-14
356 358       6.6613381477509392e-16
356 359      -7.9772469135802439e+01
356 360       1.7763568394002505e-14
356 367      -5.6089814814814822e+00
356 368       2.7172438271604939e+01
356 369       3.3652777777777820e+00
356 370       6.6613381477509392e-16
356 371       1.0719401234567900e+02
356 372       1.3461111111111112e+01
356 373       5.6089814814814822e+00
356 374       2.7172438271604925e+01
356 375       3.3652777777777749e+00
357 357      -3.2507283950617284e+02
357 277       2.8044907407407407e+00
357 278       1.6826944444444436e+01
357 279       2.0317052469135799e+01
357 280      -1.6653345369377348e-15
357 281       6.7307777777777744e+01
357 282       8.0520339506172832e+01
357 283      -2.8044907407407411e+00
357 284       1.6826944444444443e+01
357 285       2.0317052469135799e+01
357 292       1.1217962962962964e+01
357 293      -1.0214051826551440e-14
357 294       5.4344876543209864e+01
357 295       3.1086244689504383e-15
357 296      -1.1546319456101628e-14
357 297       2.1438802469135800e+02
357 298      -1.1217962962962963e+01
357 299       1.0214051826551440e-14
357 300       5.4344876543209864e+01
357 307       2.8044907407407411e+00
357 308      -1.6826944444444447e+01
357 309       2.0317052469135803e+01
357 310      -3.3306690738754696e-16
357 311      -6.7307777777777787e+01
357 312       8.0520339506172832e+01
357 313      -2.8044907407407407e+00
357 314      -1.6826944444444447e+01
357 315       2.0317052469135803e+01
357 337       5.6087962962962890e-01
357 338       3.3652777777777811e+00
357 339      -6.4814506172839454e+00
357 340      -1.3322676295501878e-15
357 341       1.3461111111111116e+01
357 342      -2.7421543209876525e+01
357 343      -5.6087962962963034e-01
357 344       3.3652777777777754e+00
357 345      -6.4814506172839499e+00
357 352       2.2435185185185191e+00
357 353       0.0000000000000000e+00
357 354      -7.9772469135802439e+01
357 355       0.0000000000000000e+00
357 356       4.2632564145606011e-14
357 358      -2.2435185185185187e+00
357 359       1.7763568394002505e-14
357 360      -7.9772469135802453e+01
357 367       5.6087962962962978e-01
357 368      -3.3652777777777740e+00
357 369      -6.4814506172839454e+00
357 370      -8.8817841970012523e-16
357 371      -1.3461111111111105e+01
357 372      -2.7421543209876528e+01
357 373      -5.6087962962962967e-01
357 374      -3.3652777777777785e+00
357 375      -6.4814506172839508e+00
358 358      -7.5285596707818911e+01
358 280       9.4106995884773603e+00
358 281       2.8044907407407398e+00
358 282       2.8044907407407402e+00
358 283       1.7512633744855961e+01
358 284       5.6087962962962901e-01
358 285       5.6087962962962890e-01
358 295       1.0719465020576129e+01
358 296      -2.3314683517128287e-15
358 297       1.1217962962962964e+01
358 298       1.6203868312757198e+01
358 299       8.8817841970012523e-16
358 300       2.2435185185185209e+00
358 310       9.4106995884773710e+00
358 311      -2.8044907407407420e+00
358 312       2.8044907407407411e+00
358 313       1.7512633744855972e+01
358 314      -5.6087962962963067e-01
358 315       5.6087962962963012e-01
358 340       5.3597325102880626e+00
358 341       5.6089814814814813e+00
358 342      -5.6087962962963012e-01
358 343       8.1019341563785989e+00
358 344       1.1217592592592591e+00
358 345      -2.8044907407407411e+00
358 355      -3.2407736625514389e+01
358 356       6.6613381477509392e-16
358 357      -2.2435185185185187e+00
358 359       5.3290705182007514e-15
358 360      -1.1217962962962964e+01
358 370       5.3597325102880653e+00
358 371      -5.6089814814814822e+00
358 372      -5.6087962962962967e-01
358 373       8.1019341563785954e+00
358 374      -1.1217592592592582e+00
358 375      -2.8044907407407416e+00
359 359      -1.6253641975308639e+02
359 280       2.8044907407407402e+00
359 281       2.0317052469135788e+01
359 282       1.6826944444444440e+01
359 283      -5.6087962962963012e-01
359 284       4.0260169753086409e+01
359 285       3.3653888888888886e+01
359 295      -2.2204460492503131e-15
359 296      -1.2962901234567905e+01
359 297      -1.7763568394002505e-14
359 298       2.2204460492503131e-15
359 299      -2.7421543209876546e+01
359 300      -1.4210854715202004e-14
359 310      -2.8044907407407420e+00
359 311       2.0317052469135817e+01
359 312      -1.6826944444444450e+01
359 313       5.6087962962962878e-01
359 314       4.0260169753086437e+01
359 315      -3.3653888888888886e+01
359 340       5.6089814814814813e+00
359 341       2.7172438271604925e+01
359 342      -3.3652777777777807e+00
359 343      -1.1217592592592602e+00
359 344       5.3597006172839500e+01
359 345      -6.7305555555555596e+00
359 355      -4.4408920985006262e-16
359 356      -7.9772469135802439e+01
359 357       1.7763568394002505e-14
359 358       5.3290705182007514e-15
359 360       4.2632564145606011e-14
359 370      -5.6089814814814822e+00
359 371       2.7172438271604928e+01
359 372       3.3652777777777749e+00
359 373       1.1217592592592611e+00
359 374       5.3597006172839485e+01
359 375       6.7305555555555490e+00
360 360      -1.6253641975308642e+02
360 280       2.8044907407407402e+00
360 281       1.6826944444444436e+01
360 282       2.0317052469135795e+01
360 283      -5.6087962962963034e-01
360 284       3.3653888888888886e+01
360 285       4.0260169753086409e+01
360 295       1.1217962962962964e+01
360 296      -1.3766765505351941e-14
360 297       5.4344876543209864e+01
360 298      -2.2435185185185165e+00
360 299       7.1054273576010019e-15
360 300       1.0719401234567900e+02
360 310       2.8044907407407411e+00
360 311      -1.6826944444444450e+01
360 312       2.0317052469135806e+01
360 313      -5.6087962962962934e-01
360 314      -3.3653888888888901e+01
360 315       4.0260169753086430e+01
360 340       5.6087962962962901e-01
360 341       3.3652777777777745e+00
360 342      -6.4814506172839499e+00
360 343      -2.8044907407407416e+00
360 344       6.7305555555555490e+00
360 345      -1.3710771604938268e+01
360 355       2.2435185185185187e+00
360 356       1.7763568394002505e-14
360 357      -7.9772469135802453e+01
360 358      -1.1217962962962964e+01
360 359       4.2632564145606011e-14
360 370       5.6087962962962967e-01
360 371      -3.3652777777777803e+00
360 372      -6.4814506172839508e+00
360 373      -2.8044907407407416e+00
360 374      -6.7305555555555596e+00
360 375      -1.3710771604938280e+01
361 361      -3.7642798353909441e+01
361 286       1.7512633744855968e+01
361 287      -5.6087962962962923e-01
361 288      -5.6087962962962923e-01
361 289       9.4106995884773621e+00
361 290      -2.8044907407407407e+00
361 291      -2.8044907407407411e+00
361 301       8.1019341563785918e+00
361 302       2.8044907407407407e+00
361 303      -1.1217592592592576e+00
361 304       5.3597325102880635e+00
361 305       5.6087962962963123e-01
361 306      -5.6089814814814813e+00
361 346       8.1019341563786043e+00
361 347      -1.1217592592592602e+00
361 348       2.8044907407407402e+00
361 349       5.3597325102880609e+00
361 350      -5.6089814814814813e+00
361 351       5.6087962962962967e-01
361 362       5.6089814814814778e+00
361 363       5.6089814814814796e+00
361 364      -1.6203868312757191e+01
361 365       1.1217592592592609e+00
361 366       1.1217592592592593e+00
361 400      -5.5555555555555566e-02
361 401       0.0000000000000000e+00
361 402       0.0000000000000000e+00
361 427       0.0000000000000000e+00
361 428       0.0000000000000000e+00
361 429       0.0000000000000000e+00
362 362      -8.1268209876543182e+01
362 286       5.6087962962962978e-01
362 287       4.0260169753086402e+01
362 288       3.3653888888888886e+01
362 289      -2.8044907407407402e+00
362 290       2.0317052469135788e+01
362 291       1.6826944444444440e+01
362 301       2.8044907407407411e+00
362 302      -1.3710771604938287e+01
362 303       6.7305555555555436e+00
362 304      -5.6087962962962790e-01
362 305      -6.4814506172839543e+00
362 306       3.3652777777777656e+00
362 346       1.1217592592592582e+00
362 347       5.3597006172839521e+01
362 348      -6.7305555555555596e+00
362 349      -5.6089814814814822e+00
362 350       2.7172438271604918e+01
362 351      -3.3652777777777758e+00
362 361       5.6089814814814778e+00
362 363      -3.3653888888888872e+01
362 364      -1.1217592592592578e+00
362 365      -3.9886234567901205e+01
362 366      -1.6826944444444432e+01
362 400       0.0000000000000000e+00
362 401       0.0000000000000000e+00
362 402       5.5555555555555566e-02
362 427       0.0000000000000000e+00
362 428       0.0000000000000000e+00
362 429       0.0000000000000000e+00
363 363      -8.1268209876543182e+01
363 286       5.6087962962962978e-01
363 287       3.3653888888888886e+01
363 288       4.0260169753086416e+01
363 289      -2.8044907407407407e+00
363 290       1.6826944444444440e+01
363 291       2.0317052469135795e+01
363 301       1.1217592592592602e+00
363 302      -6.7305555555555596e+00
363 303       5.3597006172839485e+01
363 304      -5.6089814814814822e+00
363 305      -3.3652777777777865e+00
363 306       2.7172438271604928e+01
363 346       2.8044907407407402e+00
363 347       6.7305555555555534e+00
363 348      -1.3710771604938257e+01
363 349      -5.6087962962962967e-01
363 350       3.3652777777777776e+00
363 351      -6.4814506172839534e+00
363 361       5.6089814814814796e+00
363 362      -3.3653888888888872e+01
363 364      -1.1217592592592593e+00
363 365      -1.6826944444444436e+01
363 366      -3.9886234567901219e+01
363 400       0.0000000000000000e+00
363 401       5.5555555555555566e-02
363 402       0.0000000000000000e+00
363 427       0.0000000000000000e+00
363 428       0.0000000000000000e+00
363 429       0.0000000000000000e+00
364 364      -7.5285596707818939e+01
364 286       9.4106995884773639e+00
364 287       2.8044907407407411e+00
364 288       2.8044907407407407e+00
364 289       3.5025267489711936e+01
364 290       7.7715611723760958e-16
364 291       0.0000000000000000e+00
364 292       9.4106995884773639e+00
364 293      -2.8044907407407398e+00
364 294      -2.8044907407407402e+00
364 301       5.3597325102880635e+00
364 302      -5.6087962962962967e-01
364 303       5.6089814814814831e+00
364 304       1.6203868312757194e+01
364 305      -1.7763568394002505e-15
364 306       2.8865798640254070e-15
364 307       5.3597325102880635e+00
364 308       5.6087962962963123e-01
364 309      -5.6089814814814813e+00
364 346       5.3597325102880715e+00
364 347       5.6089814814814840e+00
364 348      -5.6087962962962978e-01
364 349       1.6203868312757209e+01
364 350      -6.6613381477509392e-16
364 351      -4.4408920985006262e-16
364 352       5.3597325102880609e+00
364 353      -5.6089814814814805e+00
364 354       5.6087962962962956e-01
364 361      -1.6203868312757191e+01
364 362      -1.1217592592592578e+00
364 363      -1.1217592592592593e+00
364 365      -5.3290705182007514e-15
364 366      -5.3290705182007514e-15
364 367      -1.6203868312757209e+01
364 368       1.1217592592592602e+00
364 369       1.1217592592592591e+00
364 427       0.0000000000000000e+00
364 428       0.0000000000000000e+00
364 429       0.0000000000000000e+00
365 365      -1.6253641975308642e+02
365 286       2.8044907407407411e+00
365 287       2.0317052469135803e+01
365 288       1.6826944444444443e+01
365 289       4.4408920985006262e-16
365 290       8.0520339506172832e+01
365 291       6.7307777777777801e+01
365 292      -2.8044907407407402e+00
365 293       2.0317052469135803e+01
365 294       1.6826944444444450e+01
365 301       5.6087962962962989e-01
365 302      -6.4814506172839543e+00
365 303       3.3652777777777767e+00
365 304      -4.4408920985006262e-16
365 305      -2.7421543209876582e+01
365 306       1.3461111111111098e+01
365 307      -5.6087962962962856e-01
365 308      -6.4814506172839641e+00
365 309       3.3652777777777692e+00
365 346       5.6089814814814822e+00
365 347       2.7172438271604960e+01
365 348      -3.3652777777777780e+00
365 349      -4.4408920985006262e-16
365 350       1.0719401234567906e+02
365 351      -1.3461111111111116e+01
365 352      -5.6089814814814822e+00
365 353       2.7172438271604921e+01
365 354      -3.3652777777777789e+00
365 361       1.1217592592592609e+00
365 362      -3.9886234567901205e+01
365 363      -1.6826944444444436e+01
365 364      -5.3290705182007514e-15
365 366      -6.7307777777777773e+01
365 367      -1.1217592592592587e+00
365 368      -3.9886234567901248e+01
365 369      -1.6826944444444450e+01
365 427       0.0000000000000000e+00
365 428       0.0000000000000000e+00
365 429       0.0000000000000000e+00
366 366      -1.6253641975308648e+02
366 286       2.8044907407407411e+00
366 287       1.6826944444444443e+01
366 288       2.0317052469135799e+01
366 289       0.0000000000000000e+00
366 290       6.7307777777777801e+01
366 291       8.0520339506172860e+01
366 292      -2.8044907407407407e+00
366 293       1.6826944444444454e+01
366 294       2.0317052469135803e+01
366 301       5.6089814814814831e+00
366 302      -3.3652777777777776e+00
366 303       2.7172438271604932e+01
366 304       2.2204460492503131e-15
366 305      -1.3461111111111137e+01
366 306       1.0719401234567904e+02
366 307      -5.6089814814814813e+00
366 308      -3.3652777777777927e+00
366 309       2.7172438271604950e+01
366 346       5.6087962962962956e-01
366 347       3.3652777777777780e+00
366 348      -6.4814506172839428e+00
366 349      -8.8817841970012523e-16
366 350       1.3461111111111119e+01
366 351      -2.7421543209876539e+01
366 352      -5.6087962962963001e-01
366 353       3.3652777777777780e+00
366 354      -6.4814506172839579e+00
366 361       1.1217592592592593e+00
366 362      -1.6826944444444432e+01
366 363      -3.9886234567901219e+01
366 364      -5.3290705182007514e-15
366 365      -6.7307777777777773e+01
366 367      -1.1217592592592605e+00
366 368      -1.6826944444444450e+01
366 369      -3.9886234567901255e+01
366 427       0.0000000000000000e+00
366 428       0.0000000000000000e+00
366 429       0.0000000000000000e+00
367 367      -7.5285596707818925e+01
367 289       9.4106995884773692e+00
367 290       2.8044907407407416e+00
367 291       2.8044907407407411e+00
367 292       3.5025267489711936e+01
367 293       6.6613381477509392e-16
367 294       3.3306690738754696e-16
367 295       9.4106995884773657e+00
367 296      -2.8044907407407407e+00
367 297      -2.8044907407407407e+00
367 304       5.3597325102880653e+00
367 305      -5.6087962962963012e-01
367 306       5.6089814814814840e+00
367 307       1.6203868312757194e+01
367 308       4.4408920985006262e-16
367 309       2.4424906541753444e-15
367 310       5.3597325102880617e+00
367 311       5.6087962962963034e-01
367 312      -5.6089814814814805e+00
367 349       5.3597325102880715e+00
367 350       5.6089814814814840e+00
367 351      -5.6087962962963023e-01
367 352       1.6203868312757209e+01
367 353      -2.2204460492503131e-16
367 354      -4.4408920985006262e-16
367 355       5.3597325102880680e+00
367 356      -5.6089814814814822e+00
367 357       5.6087962962962978e-01
367 364      -1.6203868312757209e+01
367 365      -1.1217592592592587e+00
367 366      -1.1217592592592605e+00
367 368      -3.5527136788005009e-15
367 369      -3.5527136788005009e-15
367 370      -1.6203868312757201e+01
367 371       1.1217592592592587e+00
367 372       1.1217592592592589e+00
368 368      -1.6253641975308642e+02
368 289       2.8044907407407411e+00
368 290       2.0317052469135813e+01
368 291       1.6826944444444454e+01
368 292       7.7715611723760958e-16
368 293       8.0520339506172846e+01
368 294       6.7307777777777773e+01
368 295      -2.8044907407407411e+00
368 296       2.0317052469135795e+01
368 297       1.6826944444444440e+01
368 304       5.6087962962962989e-01
368 305      -6.4814506172839641e+00
368 306       3.3652777777777789e+00
368 307       8.8817841970012523e-16
368 308      -2.7421543209876575e+01
368 309       1.3461111111111100e+01
368 310      -5.6087962962962923e-01
368 311      -6.4814506172839579e+00
368 312       3.3652777777777803e+00
368 349       5.6089814814814822e+00
368 350       2.7172438271604964e+01
368 351      -3.3652777777777807e+00
368 352      -4.4408920985006262e-16
368 353       1.0719401234567904e+02
368 354      -1.3461111111111101e+01
368 355      -5.6089814814814822e+00
368 356       2.7172438271604939e+01
368 357      -3.3652777777777740e+00
368 364       1.1217592592592602e+00
368 365      -3.9886234567901248e+01
368 366      -1.6826944444444450e+01
368 367      -3.5527136788005009e-15
368 369      -6.7307777777777773e+01
368 370      -1.1217592592592593e+00
368 371      -3.9886234567901219e+01
368 372      -1.6826944444444443e+01
369 369      -1.6253641975308645e+02
369 289       2.8044907407407411e+00
369 290       1.6826944444444457e+01
369 291       2.0317052469135810e+01
369 292       3.3306690738754696e-16
369 293       6.7307777777777773e+01
369 294       8.0520339506172832e+01
369 295      -2.8044907407407407e+00
369 296       1.6826944444444440e+01
369 297       2.0317052469135799e+01
369 304       5.6089814814814840e+00
369 305      -3.3652777777777838e+00
369 306       2.7172438271604950e+01
369 307       2.4424906541753444e-15
369 308      -1.3461111111111130e+01
369 309       1.0719401234567903e+02
369 310      -5.6089814814814813e+00
369 311      -3.3652777777777754e+00
369 312       2.7172438271604932e+01
369 349       5.6087962962962934e-01
369 350       3.3652777777777789e+00
369 351      -6.4814506172839463e+00
369 352      -4.4408920985006262e-16
369 353       1.3461111111111123e+01
369 354      -2.7421543209876532e+01
369 355      -5.6087962962962978e-01
369 356       3.3652777777777820e+00
369 357      -6.4814506172839454e+00
369 364       1.1217592592592591e+00
369 365      -1.6826944444444450e+01
369 366      -3.9886234567901255e+01
369 367      -3.5527136788005009e-15
369 368      -6.7307777777777773e+01
369 370      -1.1217592592592593e+00
369 371      -1.6826944444444443e+01
369 372      -3.9886234567901226e+01
370 370      -7.5285596707818883e+01
370 292       9.4106995884773639e+00
370 293       2.8044907407407407e+00
370 294       2.8044907407407411e+00
370 295       3.5025267489711929e+01
370 296       1.5543122344752192e-15
370 297       2.2204460492503131e-16
370 298       9.4106995884773657e+00
370 299      -2.8044907407407407e+00
370 300      -2.8044907407407411e+00
370 307       5.3597325102880635e+00
370 308      -5.6087962962963067e-01
370 309       5.6089814814814822e+00
370 310       1.6203868312757187e+01
370 311       8.8817841970012523e-16
370 312       1.9984014443252818e-15
370 313       5.3597325102880600e+00
370 314       5.6087962962963034e-01
370 315      -5.6089814814814805e+00
370 352       5.3597325102880680e+00
370 353       5.6089814814814822e+00
370 354      -5.6087962962962967e-01
370 355       1.6203868312757201e+01
370 356       6.6613381477509392e-16
370 357      -8.8817841970012523e-16
370 358       5.3597325102880653e+00
370 359      -5.6089814814814822e+00
370 360       5.6087962962962967e-01
370 367      -1.6203868312757201e+01
370 368      -1.1217592592592593e+00
370 369      -1.1217592592592593e+00
370 371      -8.8817841970012523e-16
370 372      -4.4408920985006262e-15
370 373      -1.6203868312757191e+01
370 374       1.1217592592592585e+00
370 375       1.1217592592592591e+00
371 371      -1.6253641975308636e+02
371 292       2.8044907407407411e+00
371 293       2.0317052469135788e+01
371 294       1.6826944444444436e+01
371 295       8.8817841970012523e-16
371 296       8.0520339506172803e+01
371 297       6.7307777777777744e+01
371 298      -2.8044907407407407e+00
371 299       2.0317052469135803e+01
371 300       1.6826944444444443e+01
371 307       5.6087962962962912e-01
371 308      -6.4814506172839597e+00
371 309       3.3652777777777740e+00
371 310       1.3322676295501878e-15
371 311      -2.7421543209876575e+01
371 312       1.3461111111111093e+01
371 313      -5.6087962962962923e-01
371 314      -6.4814506172839597e+00
371 315       3.3652777777777745e+00
371 352       5.6089814814814831e+00
371 353       2.7172438271604939e+01
371 354      -3.3652777777777740e+00
371 355      -4.4408920985006262e-16
371 356       1.0719401234567900e+02
371 357      -1.3461111111111105e+01
371 358      -5.6089814814814822e+00
371 359       2.7172438271604928e+01
371 360      -3.3652777777777803e+00
371 367       1.1217592592592587e+00
371 368      -3.9886234567901219e+01
371 369      -1.6826944444444443e+01
371 370      -8.8817841970012523e-16
371 372      -6.7307777777777744e+01
371 373      -1.1217592592592602e+00
371 374      -3.9886234567901205e+01
371 375      -1.6826944444444432e+01
372 372      -1.6253641975308636e+02
372 292       2.8044907407407411e+00
372 293       1.6826944444444436e+01
372 294       2.0317052469135799e+01
372 295      -3.3306690738754696e-16
372 296       6.7307777777777758e+01
372 297       8.0520339506172832e+01
372 298      -2.8044907407407407e+00
372 299       1.6826944444444443e+01
372 300       2.0317052469135803e+01
372 307       5.6089814814814831e+00
372 308      -3.3652777777777843e+00
372 309       2.7172438271604932e+01
372 310       1.1102230246251565e-15
372 311      -1.3461111111111125e+01
372 312       1.0719401234567897e+02
372 313      -5.6089814814814805e+00
372 314      -3.3652777777777776e+00
372 315       2.7172438271604918e+01
372 352       5.6087962962962967e-01
372 353       3.3652777777777820e+00
372 354      -6.4814506172839454e+00
372 355      -8.8817841970012523e-16
372 356       1.3461111111111112e+01
372 357      -2.7421543209876528e+01
372 358      -5.6087962962962967e-01
372 359       3.3652777777777749e+00
372 360      -6.4814506172839508e+00
372 367       1.1217592592592589e+00
372 368      -1.6826944444444443e+01
372 369      -3.9886234567901226e+01
372 370      -4.4408920985006262e-15
372 371      -6.7307777777777744e+01
372 373      -1.1217592592592596e+00
372 374      -1.6826944444444429e+01
372 375      -3.9886234567901212e+01
373 373      -3.7642798353909441e+01
373 295       9.4106995884773621e+00
373 296       2.8044907407407402e+00
373 297       2.8044907407407402e+00
373 298       1.7512633744855965e+01
373 299       5.6087962962963023e-01
373 300       5.6087962962962978e-01
373 310       5.3597325102880609e+00
373 311      -5.6087962962963100e-01
373 312       5.6089814814814822e+00
373 313       8.1019341563785918e+00
373 314      -2.8044907407407411e+00
373 315       1.1217592592592609e+00
373 355       5.3597325102880635e+00
373 356       5.6089814814814822e+00
373 357      -5.6087962962962967e-01
373 358       8.1019341563785954e+00
373 359       1.1217592592592611e+00
373 360      -2.8044907407407416e+00
373 370      -1.6203868312757191e+01
373 371      -1.1217592592592602e+00
373 372      -1.1217592592592596e+00
373 374      -5.6089814814814822e+00
373 375      -5.6089814814814831e+00
374 374      -8.1268209876543153e+01
374 295       2.8044907407407407e+00
374 296       2.0317052469135788e+01
374 297       1.6826944444444436e+01
374 298      -5.6087962962962956e-01
374 299       4.0260169753086409e+01
374 300       3.3653888888888886e+01
374 310       5.6087962962962867e-01
374 311      -6.4814506172839597e+00
374 312       3.3652777777777638e+00
374 313      -2.8044907407407402e+00
374 314      -1.3710771604938284e+01
374 315       6.7305555555555436e+00
374 355       5.6089814814814822e+00
374 356       2.7172438271604925e+01
374 357      -3.3652777777777785e+00
374 358      -1.1217592592592582e+00
374 359       5.3597006172839485e+01
374 360      -6.7305555555555596e+00
374 370       1.1217592592592585e+00
374 371      -3.9886234567901205e+01
374 372      -1.6826944444444429e+01
374 373      -5.6089814814814822e+00
374 375      -3.3653888888888865e+01
375 375      -8.1268209876543182e+01
375 295       2.8044907407407407e+00
375 296       1.6826944444444440e+01
375 297       2.0317052469135799e+01
375 298      -5.6087962962962956e-01
375 299       3.3653888888888893e+01
375 300       4.0260169753086423e+01
375 310       5.6089814814814822e+00
375 311      -3.3652777777777900e+00
375 312       2.7172438271604921e+01
375 313      -1.1217592592592580e+00
375 314      -6.7305555555555703e+00
375 315       5.3597006172839485e+01
375 355       5.6087962962962967e-01
375 356       3.3652777777777749e+00
375 357      -6.4814506172839508e+00
375 358      -2.8044907407407416e+00
375 359       6.7305555555555490e+00
375 360      -1.3710771604938280e+01
375 370       1.1217592592592591e+00
375 371      -1.6826944444444432e+01
375 372      -3.9886234567901212e+01
375 373      -5.6089814814814831e+00
375 374      -3.3653888888888865e+01
376 376       0.0000000000000000e+00
376 13       9.8765432098765357e-02
376 14       0.0000000000000000e+00
376 15       0.0000000000000000e+00
376 28       4.9382716049382699e-02
376 29       0.0000000000000000e+00
376 30       0.0000000000000000e+00
376 58       4.9382716049382630e-02
376 59       0.0000000000000000e+00
376 60       0.0000000000000000e+00
376 73       2.4691358024691325e-02
376 74       0.0000000000000000e+00
376 75       0.0000000000000000e+00
376 136      -5.5555555555555455e-02
376 137       0.0000000000000000e+00
376 138       0.0000000000000000e+00
376 151      -5.5555555555555511e-02
376 152       0.0000000000000000e+00
376 153       0.0000000000000000e+00
376 196      -5.5555555555555511e-02
376 197       0.0000000000000000e+00
376 198       0.0000000000000000e+00
376 211      -5.5555555555555546e-02
376 212       0.0000000000000000e+00
376 213       0.0000000000000000e+00
376 377       0.0000000000000000e+00
376 378       0.0000000000000000e+00
376 403       0.0000000000000000e+00
376 404       0.0000000000000000e+00
376 405       0.0000000000000000e+00
376 430       0.0000000000000000e+00
376 431       0.0000000000000000e+00
376 432       0.0000000000000000e+00
377 377       0.0000000000000000e+00
377 13      -9.8765432098765357e-02
377 14       0.0000000000000000e+00
377 15       0.0000000000000000e+00
377 28      -4.9382716049382699e-02
377 29       0.0000000000000000e+00
377 30       0.0000000000000000e+00
377 58      -4.9382716049382630e-02
377 59       0.0000000000000000e+00
377 60       0.0000000000000000e+00
377 73      -2.4691358024691325e-02
377 74       0.0000000000000000e+00
377 75       0.0000000000000000e+00
377 136       0.0000000000000000e+00
377 137       0.0000000000000000e+00
377 138       5.5555555555555455e-02
377 151       0.0000000000000000e+00
377 152       0.0000000000000000e+00
377 153       5.5555555555555511e-02
377 196       0.0000000000000000e+00
377 197       0.0000000000000000e+00
377 198       5.5555555555555511e-02
377 211       0.0000000000000000e+00
377 212       0.0000000000000000e+00
377 213       5.5555555555555546e-02
377 376       0.0000000000000000e+00
377 378       0.0000000000000000e+00
377 403       0.0000000000000000e+00
377 404       0.0000000000000000e+00
377 405       0.0000000000000000e+00
377 430       0.0000000000000000e+00
377 431       0.0000000000000000e+00
377 432       0.0000000000000000e+00
378 378       0.0000000000000000e+00
378 13      -9.8765432098765357e-02
378 14       0.0000000000000000e+00
378 15       0.0000000000000000e+00
378 28      -4.9382716049382699e-02
378 29       0.0000000000000000e+00
378 30       0.0000000000000000e+00
378 58      -4.9382716049382630e-02
378 59       0.0000000000000000e+00
378 60       0.0000000000000000e+00
378 73      -2.4691358024691325e-02
378 74       0.0000000000000000e+00
378 75       0.0000000000000000e+00
378 136       0.0000000000000000e+00
378 137       5.5555555555555455e-02
378 138       0.0000000000000000e+00
378 151       0.0000000000000000e+00
378 152       5.5555555555555511e-02
378 153       0.0000000000000000e+00
378 196       0.0000000000000000e+00
378 197       5.5555555555555511e-02
378 198       0.0000000000000000e+00
378 211       0.0000000000000000e+00
378 212       5.5555555555555546e-02
378 213       0.0000000000000000e+00
378 376       0.0000000000000000e+00
378 377       0.0000000000000000e+00
378 403       0.0000000000000000e+00
378 404       0.0000000000000000e+00
378 405       0.0000000000000000e+00
378 430       0.0000000000000000e+00
378 431       0.0000000000000000e+00
378 432       0.0000000000000000e+00
379 379       0.0000000000000000e+00
379 13       1.2345679012345656e-02
379 14       0.0000000000000000e+00
379 15       0.0000000000000000e+00
379 28       6.7901234567901161e-02
379 29       0.0000000000000000e+00
379 30       0.0000000000000000e+00
379 43       3.0864197530864178e-02
379 44       0.0000000000000000e+00
379 45       0.0000000000000000e+00
379 58       6.1728395061728329e-02
379 59       0.0000000000000000e+00
379 60       0.0000000000000000e+00
379 73       4.3209876543209853e-02
379 74       0.0000000000000000e+00
379 75       0.0000000000000000e+00
379 88       6.1728395061728409e-03
379 89       0.0000000000000000e+00
379 90       0.0000000000000000e+00
379 151      -5.5555555555555497e-02
379 152       0.0000000000000000e+00
379 153       0.0000000000000000e+00
379 166      -5.5555555555555469e-02
379 167       0.0000000000000000e+00
379 168       0.0000000000000000e+00
379 211      -5.5555555555555539e-02
379 212       0.0000000000000000e+00
379 213       0.0000000000000000e+00
379 226      -5.5555555555555525e-02
379 227       0.0000000000000000e+00
379 228       0.0000000000000000e+00
379 380       0.0000000000000000e+00
379 381       0.0000000000000000e+00
379 406       0.0000000000000000e+00
379 407       0.0000000000000000e+00
379 408       0.0000000000000000e+00
379 433       0.0000000000000000e+00
379 434       0.0000000000000000e+00
379 435       0.0000000000000000e+00
380 380       0.0000000000000000e+00
380 13      -1.2345679012345656e-02
380 14       0.0000000000000000e+00
380 15       0.0000000000000000e+00
380 28      -6.7901234567901161e-02
380 29       0.0000000000000000e+00
380 30       0.0000000000000000e+00
380 43      -3.0864197530864178e-02
380 44       0.0000000000000000e+00
380 45       0.0000000000000000e+00
380 58      -6.1728395061728329e-02
380 59       0.0000000000000000e+00
380 60       0.0000000000000000e+00
380 73      -4.3209876543209853e-02
380 74       0.0000000000000000e+00
380 75       0.0000000000000000e+00
380 88      -6.1728395061728409e-03
380 89       0.0000000000000000e+00
380 90       0.0000000000000000e+00
380 151       0.0000000000000000e+00
380 152       0.0000000000000000e+00
380 153       5.5555555555555497e-02
380 166       0.0000000000000000e+00
380 167       0.0000000000000000e+00
380 168       5.5555555555555469e-02
380 211       0.0000000000000000e+00
380 212       0.0000000000000000e+00
380 213       5.5555555555555539e-02
380 226       0.0000000000000000e+00
380 227       0.0000000000000000e+00
380 228       5.5555555555555525e-02
380 379       0.0000000000000000e+00
380 381       0.0000000000000000e+00
380 406       0.0000000000000000e+00
380 407       0.0000000000000000e+00
380 408       0.0000000000000000e+00
380 433       0.0000000000000000e+00
380 434       0.0000000000000000e+00
380 435       0.0000000000000000e+00
381 381       0.0000000000000000e+00
381 13      -1.2345679012345656e-02
381 14       0.0000000000000000e+00
381 15       0.0000000000000000e+00
381 28      -6.7901234567901161e-02
381 29       0.0000000000000000e+00
381 30       0.0000000000000000e+00
381 43      -3.0864197530864178e-02
381 44       0.0000000000000000e+00
381 45       0.0000000000000000e+00
381 58      -6.1728395061728329e-02
381 59       0.0000000000000000e+00
381 60       0.0000000000000000e+00
381 73      -4.3209876543209853e-02
381 74       0.0000000000000000e+00
381 75       0.0000000000000000e+00
381 88      -6.1728395061728409e-03
381 89       0.0000000000000000e+00
381 90       0.0000000000000000e+00
381 151       0.0000000000000000e+00
381 152       5.5555555555555497e-02
381 153       0.0000000000000000e+00
381 166       0.0000000000000000e+00
381 167       5.5555555555555469e-02
381 168       0.0000000000000000e+00
381 211       0.0000000000000000e+00
381 212       5.5555555555555539e-02
381 213       0.0000000000000000e+00
381 226       0.0000000000000000e+00
381 227       5.5555555555555525e-02
381 228       0.0000000000000000e+00
381 379       0.0000000000000000e+00
381 380       0.0000000000000000e+00
381 406       0.0000000000000000e+00
381 407       0.0000000000000000e+00
381 408       0.0000000000000000e+00
381 433       0.0000000000000000e+00
381 434       0.0000000000000000e+00
381 435       0.0000000000000000e+00
382 382       0.0000000000000000e+00
382 28       4.9382716049382741e-02
382 29       0.0000000000000000e+00
382 30       0.0000000000000000e+00
382 43       2.4691358024691377e-02
382 44       0.0000000000000000e+00
382 45       0.0000000000000000e+00
382 73       9.8765432098765302e-02
382 74       0.0000000000000000e+00
382 75       0.0000000000000000e+00
382 88       4.9382716049382672e-02
382 89       0.0000000000000000e+00
382 90       0.0000000000000000e+00
382 166      -5.5555555555555469e-02
382 167       0.0000000000000000e+00
382 168       0.0000000000000000e+00
382 181      -5.5555555555555525e-02
382 182       0.0000000000000000e+00
382 183       0.0000000000000000e+00
382 226      -5.5555555555555539e-02
382 227       0.0000000000000000e+00
382 228       0.0000000000000000e+00
382 241      -5.5555555555555566e-02
382 242       0.0000000000000000e+00
382 243       0.0000000000000000e+00
382 383       0.0000000000000000e+00
382 384       0.0000000000000000e+00
382 409       0.0000000000000000e+00
382 410       0.0000000000000000e+00
382 411       0.0000000000000000e+00
382 436       0.0000000000000000e+00
382 437       0.0000000000000000e+00
382 438       0.0000000000000000e+00
383 383       0.0000000000000000e+00
383 28      -4.9382716049382741e-02
383 29       0.0000000000000000e+00
383 30       0.0000000000000000e+00
383 43      -2.4691358024691377e-02
383 44       0.0000000000000000e+00
383 45       0.0000000000000000e+00
383 73      -9.8765432098765302e-02
383 74       0.0000000000000000e+00
383 75       0.0000000000000000e+00
383 88      -4.9382716049382672e-02
383 89       0.0000000000000000e+00
383 90       0.0000000000000000e+00
383 166       0.0000000000000000e+00
383 167       0.0000000000000000e+00
383 168       5.5555555555555469e-02
383 181       0.0000000000000000e+00
383 182       0.0000000000000000e+00
383 183       5.5555555555555525e-02
383 226       0.0000000000000000e+00
383 227       0.0000000000000000e+00
383 228       5.5555555555555539e-02
383 241       0.0000000000000000e+00
383 242       0.0000000000000000e+00
383 243       5.5555555555555566e-02
383 382       0.0000000000000000e+00
383 384       0.0000000000000000e+00
383 409       0.0000000000000000e+00
383 410       0.0000000000000000e+00
383 411       0.0000000000000000e+00
383 436       0.0000000000000000e+00
383 437       0.0000000000000000e+00
383 438       0.0000000000000000e+00
384 384       0.0000000000000000e+00
384 28      -4.9382716049382741e-02
384 29       0.0000000000000000e+00
384 30       0.0000000000000000e+00
384 43      -2.4691358024691377e-02
384 44       0.0000000000000000e+00
384 45       0.0000000000000000e+00
384 73      -9.8765432098765302e-02
384 74       0.0000000000000000e+00
384 75       0.0000000000000000e+00
384 88      -4.9382716049382672e-02
384 89       0.0000000000000000e+00
384 90       0.0000000000000000e+00
384 166       0.0000000000000000e+00
384 167       5.5555555555555469e-02
384 168       0.0000000000000000e+00
384 181       0.0000000000000000e+00
384 182       5.5555555555555525e-02
384 183       0.0000000000000000e+00
384 226       0.0000000000000000e+00
384 227       5.5555555555555539e-02
384 228       0.0000000000000000e+00
384 241       0.0000000000000000e+00
384 242       5.5555555555555566e-02
384 243       0.0000000000000000e+00
384 382       0.0000000000000000e+00
384 383       0.0000000000000000e+00
384 409       0.0000000000000000e+00
384 410       0.0000000000000000e+00
384 411       0.0000000000000000e+00
384 436       0.0000000000000000e+00
384 437       0.0000000000000000e+00
384 438       0.0000000000000000e+00
385 385       0.0000000000000000e+00
385 13       1.2345679012345668e-02
385 14       0.0000000000000000e+00
385 15       0.0000000000000000e+00
385 28       6.1728395061728336e-02
385 29       0.0000000000000000e+00
385 30       0.0000000000000000e+00
385 58       8.0246913580246826e-02
385 59       0.0000000000000000e+00
385 60       0.0000000000000000e+00
385 73       3.0864197530864182e-02
385 74       0.0000000000000000e+00
385 75       0.0000000000000000e+00
385 103       3.7037037037037007e-02
385 104       0.0000000000000000e+00
385 105       0.0000000000000000e+00
385 118       0.0000000000000000e+00
385 119       0.0000000000000000e+00
385 120       0.0000000000000000e+00
385 196      -5.5555555555555518e-02
385 197       0.0000000000000000e+00
385 198       0.0000000000000000e+00
385 211      -5.5555555555555455e-02
385 212       0.0000000000000000e+00
385 213       0.0000000000000000e+00
385 256      -5.5555555555555552e-02
385 257       0.0000000000000000e+00
385 258       0.0000000000000000e+00
385 271      -5.5555555555555497e-02
385 272       0.0000000000000000e+00
385 273       0.0000000000000000e+00
385 386       0.0000000000000000e+00
385 387       0.0000000000000000e+00
385 412       0.0000000000000000e+00
385 413       0.0000000000000000e+00
385 414       0.0000000000000000e+00
385 439       0.0000000000000000e+00
385 440       0.0000000000000000e+00
385 441       0.0000000000000000e+00
386 386       0.0000000000000000e+00
386 13      -1.2345679012345668e-02
386 14       0.0000000000000000e+00
386 15       0.0000000000000000e+00
386 28      -6.1728395061728336e-02
386 29       0.0000000000000000e+00
386 30       0.0000000000000000e+00
386 58      -8.0246913580246826e-02
386 59       0.0000000000000000e+00
386 60       0.0000000000000000e+00
386 73      -3.0864197530864182e-02
386 74       0.0000000000000000e+00
386 75       0.0000000000000000e+00
386 103      -3.7037037037037007e-02
386 104       0.0000000000000000e+00
386 105       0.0000000000000000e+00
386 118       0.0000000000000000e+00
386 119       0.0000000000000000e+00
386 120       0.0000000000000000e+00
386 196       0.0000000000000000e+00
386 197       0.0000000000000000e+00
386 198       5.5555555555555518e-02
386 211       0.0000000000000000e+00
386 212       0.0000000000000000e+00
386 213       5.5555555555555455e-02
386 256       0.0000000000000000e+00
386 257       0.0000000000000000e+00
386 258       5.5555555555555552e-02
386 271       0.0000000000000000e+00
386 272       0.0000000000000000e+00
386 273       5.5555555555555497e-02
386 385       0.0000000000000000e+00
386 387       0.0000000000000000e+00
386 412       0.0000000000000000e+00
386 413       0.0000000000000000e+00
386 414       0.0000000000000000e+00
386 439       0.0000000000000000e+00
386 440       0.0000000000000000e+00
386 441       0.0000000000000000e+00
387 387       0.0000000000000000e+00
387 13      -1.2345679012345668e-02
387 14       0.0000000000000000e+00
387 15       0.0000000000000000e+00
387 28      -6.1728395061728336e-02
387 29       0.0000000000000000e+00
387 30       0.0000000000000000e+00
387 58      -8.0246913580246826e-02
387 59       0.0000000000000000e+00
387 60       0.0000000000000000e+00
387 73      -3.0864197530864182e-02
387 74       0.0000000000000000e+00
387 75       0.0000000000000000e+00
387 103      -3.7037037037037007e-02
387 104       0.0000000000000000e+00
387 105       0.0000000000000000e+00
387 118       0.0000000000000000e+00
387 119       0.0000000000000000e+00
387 120       0.0000000000000000e+00
387 196       0.0000000000000000e+00
387 197       5.5555555555555518e-02
387 198       0.0000000000000000e+00
387 211       0.0000000000000000e+00
387 212       5.5555555555555455e-02
387 213       0.0000000000000000e+00
387 256       0.0000000000000000e+00
387 257       5.5555555555555552e-02
387 258       0.0000000000000000e+00
387 271       0.0000000000000000e+00
387 272       5.5555555555555497e-02
387 273       0.0000000000000000e+00
387 385       0.0000000000000000e+00
387 386       0.0000000000000000e+00
387 412       0.0000000000000000e+00
387 413       0.0000000000000000e+00
387 414       0.0000000000000000e+00
387 439       0.0000000000000000e+00
387 440       0.0000000000000000e+00
387 441       0.0000000000000000e+00
388 388       0.0000000000000000e+00
388 13       1.5432098765432072e-03
388 14       0.0000000000000000e+00
388 15       0.0000000000000000e+00
388 28       1.5432098765432079e-02
388 29       0.0000000000000000e+00
388 30       0.0000000000000000e+00
388 43       4.7839506172839455e-02
388 44       0.0000000000000000e+00
388 45       0.0000000000000000e+00
388 58       7.7160493827160420e-03
388 59       0.0000000000000000e+00
388 60       0.0000000000000000e+00
388 73       7.8703703703703637e-02
388 74       0.0000000000000000e+00
388 75       0.0000000000000000e+00
388 88       6.1728395061728343e-02
388 89       0.0000000000000000e+00
388 90       0.0000000000000000e+00
388 103       0.0000000000000000e+00
388 104       0.0000000000000000e+00
388 105       0.0000000000000000e+00
388 118       7.7160493827160472e-03
388 119       0.0000000000000000e+00
388 120       0.0000000000000000e+00
388 133       1.5432098765432104e-03
388 134       0.0000000000000000e+00
388 135       0.0000000000000000e+00
388 211      -5.5555555555555497e-02
388 212       0.0000000000000000e+00
388 213       0.0000000000000000e+00
388 226      -5.5555555555555462e-02
388 227       0.0000000000000000e+00
388 228       0.0000000000000000e+00
388 271      -5.5555555555555525e-02
388 272       0.0000000000000000e+00
388 273       0.0000000000000000e+00
388 286      -5.5555555555555504e-02
388 287       0.0000000000000000e+00
388 288       0.0000000000000000e+00
388 389       0.0000000000000000e+00
388 390       0.0000000000000000e+00
388 415       0.0000000000000000e+00
388 416       0.0000000000000000e+00
388 417       0.0000000000000000e+00
388 442       0.0000000000000000e+00
388 443       0.0000000000000000e+00
388 444       0.0000000000000000e+00
389 389       0.0000000000000000e+00
389 13      -1.5432098765432072e-03
389 14       0.0000000000000000e+00
389 15       0.0000000000000000e+00
389 28      -1.5432098765432079e-02
389 29       0.0000000000000000e+00
389 30       0.0000000000000000e+00
389 43      -4.7839506172839455e-02
389 44       0.0000000000000000e+00
389 45       0.0000000000000000e+00
389 58      -7.7160493827160420e-03
389 59       0.0000000000000000e+00
389 60       0.0000000000000000e+00
389 73      -7.8703703703703637e-02
389 74       0.0000000000000000e+00
389 75       0.0000000000000000e+00
389 88      -6.1728395061728343e-02
389 89       0.0000000000000000e+00
389 90       0.0000000000000000e+00
389 103       0.0000000000000000e+00
389 104       0.0000000000000000e+00
389 105       0.0000000000000000e+00
389 118      -7.7160493827160472e-03
389 119       0.0000000000000000e+00
389 120       0.0000000000000000e+00
389 133      -1.5432098765432104e-03
389 134       0.0000000000000000e+00
389 135       0.0000000000000000e+00
389 211       0.0000000000000000e+00
389 212       0.0000000000000000e+00
389 213       5.5555555555555497e-02
389 226       0.0000000000000000e+00
389 227       0.0000000000000000e+00
389 228       5.5555555555555462e-02
389 271       0.0000000000000000e+00
389 272       0.0000000000000000e+00
389 273       5.5555555555555525e-02
389 286       0.0000000000000000e+00
389 287       0.0000000000000000e+00
389 288       5.5555555555555504e-02
389 388       0.0000000000000000e+00
389 390       0.0000000000000000e+00
389 415       0.0000000000000000e+00
389 416       0.0000000000000000e+00
389 417       0.0000000000000000e+00
389 442       0.0000000000000000e+00
389 443       0.0000000000000000e+00
389 444       0.0000000000000000e+00
390 390       0.0000000000000000e+00
390 13      -1.5432098765432072e-03
390 14       0.0000000000000000e+00
390 15       0.0000000000000000e+00
390 28      -1.5432098765432079e-02
390 29       0.0000000000000000e+00
390 30       0.0000000000000000e+00
390 43      -4.7839506172839455e-02
390 44       0.0000000000000000e+00
390 45       0.0000000000000000e+00
390 58      -7.7160493827160420e-03
390 59       0.0000000000000000e+00
390 60       0.0000000000000000e+00
390 73      -7.8703703703703637e-02
390 74       0.0000000000000000e+00
390 75       0.0000000000000000e+00
390 88      -6.1728395061728343e-02
390 89       0.0000000000000000e+00
390 90       0.0000000000000000e+00
390 103       0.0000000000000000e+00
390 104       0.0000000000000000e+00
390 105       0.0000000000000000e+00
390 118      -7.7160493827160472e-03
390 119       0.0000000000000000e+00
390 120       0.0000000000000000e+00
390 133      -1.5432098765432104e-03
390 134       0.0000000000000000e+00
390 135       0.0000000000000000e+00
390 211       0.0000000000000000e+00
390 212       5.5555555555555497e-02
390 213       0.0000000000000000e+00
390 226       0.0000000000000000e+00
390 227       5.5555555555555462e-02
390 228       0.0000000000000000e+00
390 271       0.0000000000000000e+00
390 272       5.5555555555555525e-02
390 273       0.0000000000000000e+00
390 286       0.0000000000000000e+00
390 287       5.5555555555555504e-02
390 288       0.0000000000000000e+00
390 388       0.0000000000000000e+00
390 389       0.0000000000000000e+00
390 415       0.0000000000000000e+00
390 416       0.0000000000000000e+00
390 417       0.0000000000000000e+00
390 442       0.0000000000000000e+00
390 443       0.0000000000000000e+00
390 444       0.0000000000000000e+00
391 391       0.0000000000000000e+00
391 28       6.1728395061728357e-03
391 29       0.0000000000000000e+00
391 30       0.0000000000000000e+00
391 43       3.0864197530864189e-02
391 44       0.0000000000000000e+00
391 45       0.0000000000000000e+00
391 73       4.3209876543209846e-02
391 74       0.0000000000000000e+00
391 75       0.0000000000000000e+00
391 88       6.7901234567901189e-02
391 89       0.0000000000000000e+00
391 90       0.0000000000000000e+00
391 118       6.1728395061728336e-02
391 119       0.0000000000000000e+00
391 120       0.0000000000000000e+00
391 133       1.2345679012345673e-02
391 134       0.0000000000000000e+00
391 135       0.0000000000000000e+00
391 226      -5.5555555555555532e-02
391 227       0.0000000000000000e+00
391 228       0.0000000000000000e+00
391 241      -5.5555555555555462e-02
391 242       0.0000000000000000e+00
391 243       0.0000000000000000e+00
391 286      -5.5555555555555559e-02
391 287       0.0000000000000000e+00
391 288       0.0000000000000000e+00
391 301      -5.5555555555555497e-02
391 302       0.0000000000000000e+00
391 303       0.0000000000000000e+00
391 392       0.0000000000000000e+00
391 393       0.0000000000000000e+00
391 418       0.0000000000000000e+00
391 419       0.0000000000000000e+00
391 420       0.0000000000000000e+00
391 445       0.0000000000000000e+00
391 446       0.0000000000000000e+00
391 447       0.0000000000000000e+00
392 392       0.0000000000000000e+00
392 28      -6.1728395061728357e-03
392 29       0.0000000000000000e+00
392 30       0.0000000000000000e+00
392 43      -3.0864197530864189e-02
392 44       0.0000000000000000e+00
392 45       0.0000000000000000e+00
392 73      -4.3209876543209846e-02
392 74       0.0000000000000000e+00
392 75       0.0000000000000000e+00
392 88      -6.7901234567901189e-02
392 89       0.0000000000000000e+00
392 90       0.0000000000000000e+00
392 118      -6.1728395061728336e-02
392 119       0.0000000000000000e+00
392 120       0.0000000000000000e+00
392 133      -1.2345679012345673e-02
392 134       0.0000000000000000e+00
392 135       0.0000000000000000e+00
392 226       0.0000000000000000e+00
392 227       0.0000000000000000e+00
392 228       5.5555555555555532e-02
392 241       0.0000000000000000e+00
392 242       0.0000000000000000e+00
392 243       5.5555555555555462e-02
392 286       0.0000000000000000e+00
392 287       0.0000000000000000e+00
392 288       5.5555555555555559e-02
392 301       0.0000000000000000e+00
392 302       0.0000000000000000e+00
392 303       5.5555555555555497e-02
392 391       0.0000000000000000e+00
392 393       0.0000000000000000e+00
392 418       0.0000000000000000e+00
392 419       0.0000000000000000e+00
392 420       0.0000000000000000e+00
392 445       0.0000000000000000e+00
392 446       0.0000000000000000e+00
392 447       0.0000000000000000e+00
393 393       0.0000000000000000e+00
393 28      -6.1728395061728357e-03
393 29       0.0000000000000000e+00
393 30       0.0000000000000000e+00
393 43      -3.0864197530864189e-02
393 44       0.0000000000000000e+00
393 45       0.0000000000000000e+00
393 73      -4.3209876543209846e-02
393 74       0.0000000000000000e+00
393 75       0.0000000000000000e+00
393 88      -6.7901234567901189e-02
393 89       0.0000000000000000e+00
393 90       0.0000000000000000e+00
393 118      -6.1728395061728336e-02
393 119       0.0000000000000000e+00
393 120       0.0000000000000000e+00
393 133      -1.2345679012345673e-02
393 134       0.0000000000000000e+00
393 135       0.0000000000000000e+00
393 226       0.0000000000000000e+00
393 227       5.5555555555555532e-02
393 228       0.0000000000000000e+00
393 241       0.0000000000000000e+00
393 242       5.5555555555555462e-02
393 243       0.0000000000000000e+00
393 286       0.0000000000000000e+00
393 287       5.5555555555555559e-02
393 288       0.0000000000000000e+00
393 301       0.0000000000000000e+00
393 302       5.5555555555555497e-02
393 303       0.0000000000000000e+00
393 391       0.0000000000000000e+00
393 392       0.0000000000000000e+00
393 418       0.0000000000000000e+00
393 419       0.0000000000000000e+00
393 420       0.0000000000000000e+00
393 445       0.0000000000000000e+00
393 446       0.0000000000000000e+00
393 447       0.0000000000000000e+00
394 394       0.0000000000000000e+00
394 58       1.4814814814814808e-01
394 59       0.0000000000000000e+00
394 60       0.0000000000000000e+00
394 73       0.0000000000000000e+00
394 74       0.0000000000000000e+00
394 75       0.0000000000000000e+00
394 103       7.4074074074073959e-02
394 104       0.0000000000000000e+00
394 105       0.0000000000000000e+00
394 118       0.0000000000000000e+00
394 119       0.0000000000000000e+00
394 120       0.0000000000000000e+00
394 256      -5.5555555555555455e-02
394 257       0.0000000000000000e+00
394 258       0.0000000000000000e+00
394 271      -5.5555555555555532e-02
394 272       0.0000000000000000e+00
394 273       0.0000000000000000e+00
394 316      -5.5555555555555525e-02
394 317       0.0000000000000000e+00
394 318       0.0000000000000000e+00
394 331      -5.5555555555555559e-02
394 332       0.0000000000000000e+00
394 333       0.0000000000000000e+00
394 395       0.0000000000000000e+00
394 396       0.0000000000000000e+00
394 421       0.0000000000000000e+00
394 422       0.0000000000000000e+00
394 423       0.0000000000000000e+00
394 448       0.0000000000000000e+00
394 449       0.0000000000000000e+00
394 450       0.0000000000000000e+00
395 395       0.0000000000000000e+00
395 58      -1.4814814814814808e-01
395 59       0.0000000000000000e+00
395 60       0.0000000000000000e+00
395 73       0.0000000000000000e+00
395 74       0.0000000000000000e+00
395 75       0.0000000000000000e+00
395 103      -7.4074074074073959e-02
395 104       0.0000000000000000e+00
395 105       0.0000000000000000e+00
395 118       0.0000000000000000e+00
395 119       0.0000000000000000e+00
395 120       0.0000000000000000e+00
395 256       0.0000000000000000e+00
395 257       0.0000000000000000e+00
395 258       5.5555555555555455e-02
395 271       0.0000000000000000e+00
395 272       0.0000000000000000e+00
395 273       5.5555555555555532e-02
395 316       0.0000000000000000e+00
395 317       0.0000000000000000e+00
395 318       5.5555555555555525e-02
395 331       0.0000000000000000e+00
395 332       0.0000000000000000e+00
395 333       5.5555555555555559e-02
395 394       0.0000000000000000e+00
395 396       0.0000000000000000e+00
395 421       0.0000000000000000e+00
395 422       0.0000000000000000e+00
395 423       0.0000000000000000e+00
395 448       0.0000000000000000e+00
395 449       0.0000000000000000e+00
395 450       0.0000000000000000e+00
396 396       0.0000000000000000e+00
396 58      -1.4814814814814808e-01
396 59       0.0000000000000000e+00
396 60       0.0000000000000000e+00
396 73       0.0000000000000000e+00
396 74       0.0000000000000000e+00
396 75       0.0000000000000000e+00
396 103      -7.4074074074073959e-02
396 104       0.0000000000000000e+00
396 105       0.0000000000000000e+00
396 118       0.0000000000000000e+00
396 119       0.0000000000000000e+00
396 120       0.0000000000000000e+00
396 256       0.0000000000000000e+00
396 257       5.5555555555555455e-02
396 258       0.0000000000000000e+00
396 271       0.0000000000000000e+00
396 272       5.5555555555555532e-02
396 273       0.0000000000000000e+00
396 316       0.0000000000000000e+00
396 317       5.5555555555555525e-02
396 318       0.0000000000000000e+00
396 331       0.0000000000000000e+00
396 332       5.5555555555555559e-02
396 333       0.0000000000000000e+00
396 394       0.0000000000000000e+00
396 395       0.0000000000000000e+00
396 421       0.0000000000000000e+00
396 422       0.0000000000000000e+00
396 423       0.0000000000000000e+00
396 448       0.0000000000000000e+00
396 449       0.0000000000000000e+00
396 450       0.0000000000000000e+00
397 397       0.0000000000000000e+00
397 58       1.8518518518518490e-02
397 59       0.0000000000000000e+00
397 60       0.0000000000000000e+00
397 73       3.0864197530864161e-02
397 74       0.0000000000000000e+00
397 75       0.0000000000000000e+00
397 88       1.5432098765432087e-01
397 89       0.0000000000000000e+00
397 90       0.0000000000000000e+00
397 103       0.0000000000000000e+00
397 104       0.0000000000000000e+00
397 105       0.0000000000000000e+00
397 118       6.1728395061728392e-03
397 119       0.0000000000000000e+00
397 120       0.0000000000000000e+00
397 133       1.2345679012345682e-02
397 134       0.0000000000000000e+00
397 135       0.0000000000000000e+00
397 271      -5.5555555555555504e-02
397 272       0.0000000000000000e+00
397 273       0.0000000000000000e+00
397 286      -5.5555555555555469e-02
397 287       0.0000000000000000e+00
397 288       0.0000000000000000e+00
397 331      -5.5555555555555552e-02
397 332       0.0000000000000000e+00
397 333       0.0000000000000000e+00
397 346      -5.5555555555555525e-02
397 347       0.0000000000000000e+00
397 348       0.0000000000000000e+00
397 398       0.0000000000000000e+00
397 399       0.0000000000000000e+00
397 424       0.0000000000000000e+00
397 425       0.0000000000000000e+00
397 426       0.0000000000000000e+00
397 451       0.0000000000000000e+00
397 452       0.0000000000000000e+00
397 453       0.0000000000000000e+00
398 398       0.0000000000000000e+00
398 58      -1.8518518518518490e-02
398 59       0.0000000000000000e+00
398 60       0.0000000000000000e+00
398 73      -3.0864197530864161e-02
398 74       0.0000000000000000e+00
398 75       0.0000000000000000e+00
398 88      -1.5432098765432087e-01
398 89       0.0000000000000000e+00
398 90       0.0000000000000000e+00
398 103       0.0000000000000000e+00
398 104       0.0000000000000000e+00
398 105       0.0000000000000000e+00
398 118      -6.1728395061728392e-03
398 119       0.0000000000000000e+00
398 120       0.0000000000000000e+00
398 133      -1.2345679012345682e-02
398 134       0.0000000000000000e+00
398 135       0.0000000000000000e+00
398 271       0.0000000000000000e+00
398 272       0.0000000000000000e+00
398 273       5.5555555555555504e-02
398 286       0.0000000000000000e+00
398 287       0.0000000000000000e+00
398 288       5.5555555555555469e-02
398 331       0.0000000000000000e+00
398 332       0.0000000000000000e+00
398 333       5.5555555555555552e-02
398 346       0.0000000000000000e+00
398 347       0.0000000000000000e+00
398 348       5.5555555555555525e-02
398 397       0.0000000000000000e+00
398 399       0.0000000000000000e+00
398 424       0.0000000000000000e+00
398 425       0.0000000000000000e+00
398 426       0.0000000000000000e+00
398 451       0.0000000000000000e+00
398 452       0.0000000000000000e+00
398 453       0.0000000000000000e+00
399 399       0.0000000000000000e+00
399 58      -1.8518518518518490e-02
399 59       0.0000000000000000e+00
399 60       0.0000000000000000e+00
399 73      -3.0864197530864161e-02
399 74       0.0000000000000000e+00
399 75       0.0000000000000000e+00
399 88      -1.5432098765432087e-01
399 89       0.0000000000000000e+00
399 90       0.0000000000000000e+00
399 103       0.0000000000000000e+00
399 104       0.0000000000000000e+00
399 105       0.0000000000000000e+00
399 118      -6.1728395061728392e-03
399 119       0.0000000000000000e+00
399 120       0.0000000000000000e+00
399 133      -1.2345679012345682e-02
399 134       0.0000000000000000e+00
399 135       0.0000000000000000e+00
399 271       0.0000000000000000e+00
399 272       5.5555555555555504e-02
399 273       0.0000000000000000e+00
399 286       0.0000000000000000e+00
399 287       5.5555555555555469e-02
399 288       0.0000000000000000e+00
399 331       0.0000000000000000e+00
399 332       5.5555555555555552e-02
399 333       0.0000000000000000e+00
399 346       0.0000000000000000e+00
399 347       5.5555555555555525e-02
399 348       0.0000000000000000e+00
399 397       0.0000000000000000e+00
399 398       0.0000000000000000e+00
399 424       0.0000000000000000e+00
399 425       0.0000000000000000e+00
399 426       0.0000000000000000e+00
399 451       0.0000000000000000e+00
399 452       0.0000000000000000e+00
399 453       0.0000000000000000e+00
400 400       0.0000000000000000e+00
400 73       2.4691358024691371e-02
400 74       0.0000000000000000e+00
400 75       0.0000000000000000e+00
400 88       4.9382716049382748e-02
400 89       0.0000000000000000e+00
400 90       0.0000000000000000e+00
400 118       4.9382716049382644e-02
400 119       0.0000000000000000e+00
400 120       0.0000000000000000e+00
400 133       9.8765432098765329e-02
400 134       0.0000000000000000e+00
400 135       0.0000000000000000e+00
400 286      -5.5555555555555469e-02
400 287       0.0000000000000000e+00
400 288       0.0000000000000000e+00
400 301      -5.5555555555555525e-02
400 302       0.0000000000000000e+00
400 303       0.0000000000000000e+00
400 346      -5.5555555555555525e-02
400 347       0.0000000000000000e+00
400 348       0.0000000000000000e+00
400 361      -5.5555555555555566e-02
400 362       0.0000000000000000e+00
400 363       0.0000000000000000e+00
400 401       0.0000000000000000e+00
400 402       0.0000000000000000e+00
400 427       0.0000000000000000e+00
400 428       0.0000000000000000e+00
400 429       0.0000000000000000e+00
400 454       0.0000000000000000e+00
400 455       0.0000000000000000e+00
400 456       0.0000000000000000e+00
401 401       0.0000000000000000e+00
401 73      -2.4691358024691371e-02
401 74       0.0000000000000000e+00
401 75       0.0000000000000000e+00
401 88      -4.9382716049382748e-02
401 89       0.0000000000000000e+00
401 90       0.0000000000000000e+00
401 118      -4.9382716049382644e-02
401 119       0.0000000000000000e+00
401 120       0.0000000000000000e+00
401 133      -9.8765432098765329e-02
401 134       0.0000000000000000e+00
401 135       0.0000000000000000e+00
401 286       0.0000000000000000e+00
401 287       0.0000000000000000e+00
401 288       5.5555555555555469e-02
401 301       0.0000000000000000e+00
401 302       0.0000000000000000e+00
401 303       5.5555555555555525e-02
401 346       0.0000000000000000e+00
401 347       0.0000000000000000e+00
401 348       5.5555555555555525e-02
401 361       0.0000000000000000e+00
401 362       0.0000000000000000e+00
401 363       5.5555555555555566e-02
401 400       0.0000000000000000e+00
401 402       0.0000000000000000e+00
401 427       0.0000000000000000e+00
401 428       0.0000000000000000e+00
401 429       0.0000000000000000e+00
401 454       0.0000000000000000e+00
401 455       0.0000000000000000e+00
401 456       0.0000000000000000e+00
402 402       0.0000000000000000e+00
402 73      -2.4691358024691371e-02
402 74       0.0000000000000000e+00
402 75       0.0000000000000000e+00
402 88      -4.9382716049382748e-02
402 89       0.0000000000000000e+00
402 90       0.0000000000000000e+00
402 118      -4.9382716049382644e-02
402 119       0.0000000000000000e+00
402 120       0.0000000000000000e+00
402 133      -9.8765432098765329e-02
402 134       0.0000000000000000e+00
402 135       0.0000000000000000e+00
402 286       0.0000000000000000e+00
402 287       5.5555555555555469e-02
402 288       0.0000000000000000e+00
402 301       0.0000000000000000e+00
402 302       5.5555555555555525e-02
402 303       0.0000000000000000e+00
402 346       0.0000000000000000e+00
402 347       5.5555555555555525e-02
402 348       0.0000000000000000e+00
402 361       0.0000000000000000e+00
402 362       5.5555555555555566e-02
402 363       0.0000000000000000e+00
402 400       0.0000000000000000e+00
402 401       0.0000000000000000e+00
402 427       0.0000000000000000e+00
402 428       0.0000000000000000e+00
402 429       0.0000000000000000e+00
402 454       0.0000000000000000e+00
402 455       0.0000000000000000e+00
402 456       0.0000000000000000e+00
403 403       0.0000000000000000e+00
403 136       0.0000000000000000e+00
403 137       0.0000000000000000e+00
403 138       0.0000000000000000e+00
403 139       0.0000000000000000e+00
403 140       0.0000000000000000e+00
403 141       0.0000000000000000e+00
403 151       0.0000000000000000e+00
403 152       0.0000000000000000e+00
403 153       0.0000000000000000e+00
403 154       0.0000000000000000e+00
403 155       0.0000000000000000e+00
403 156       0.0000000000000000e+00
403 196       0.0000000000000000e+00
403 197       0.0000000000000000e+00
403 198       0.0000000000000000e+00
403 199       0.0000000000000000e+00
403 200       0.0000000000000000e+00
403 201       0.0000000000000000e+00
403 211       0.0000000000000000e+00
403 212       0.0000000000000000e+00
403 213       0.0000000000000000e+00
403 214       0.0000000000000000e+00
403 215       0.0000000000000000e+00
403 216       0.0000000000000000e+00
403 376       0.0000000000000000e+00
403 377       0.0000000000000000e+00
403 378       0.0000000000000000e+00
403 404       0.0000000000000000e+00
403 405       0.0000000000000000e+00
403 430       0.0000000000000000e+00
403 431       0.0000000000000000e+00
403 432       0.0000000000000000e+00
404 404       0.0000000000000000e+00
404 136       0.0000000000000000e+00
404 137       0.0000000000000000e+00
404 138       0.0000000000000000e+00
404 139       0.0000000000000000e+00
404 140       0.0000000000000000e+00
404 141       0.0000000000000000e+00
404 151       0.0000000000000000e+00
404 152       0.0000000000000000e+00
404 153       0.0000000000000000e+00
404 154       0.0000000000000000e+00
404 155       0.0000000000000000e+00
404 156       0.0000000000000000e+00
404 196       0.0000000000000000e+00
404 197       0.0000000000000000e+00
404 198       0.0000000000000000e+00
404 199       0.0000000000000000e+00
404 200       0.0000000000000000e+00
404 201       0.0000000000000000e+00
404 211       0.0000000000000000e+00
404 212       0.0000000000000000e+00
404 213       0.0000000000000000e+00
404 214       0.0000000000000000e+00
404 215       0.0000000000000000e+00
404 216       0.0000000000000000e+00
404 376       0.0000000000000000e+00
404 377       0.0000000000000000e+00
404 378       0.0000000000000000e+00
404 403       0.0000000000000000e+00
404 405       0.0000000000000000e+00
404 430       0.0000000000000000e+00
404 431       0.0000000000000000e+00
404 432       0.0000000000000000e+00
405 405       0.0000000000000000e+00
405 136       0.0000000000000000e+00
405 137       0.0000000000000000e+00
405 138       0.0000000000000000e+00
405 139       0.0000000000000000e+00
405 140       0.0000000000000000e+00
405 141       0.0000000000000000e+00
405 151       0.0000000000000000e+00
405 152       0.0000000000000000e+00
405 153       0.0000000000000000e+00
405 154       0.0000000000000000e+00
405 155       0.0000000000000000e+00
405 156       0.0000000000000000e+00
405 196       0.0000000000000000e+00
405 197       0.0000000000000000e+00
405 198       0.0000000000000000e+00
405 199       0.0000000000000000e+00
405 200       0.0000000000000000e+00
405 201       0.0000000000000000e+00
405 211       0.0000000000000000e+00
405 212       0.0000000000000000e+00
405 213       0.0000000000000000e+00
405 214       0.0000000000000000e+00
405 215       0.0000000000000000e+00
405 216       0.0000000000000000e+00
405 376       0.0000000000000000e+00
405 377       0.0000000000000000e+00
405 378       0.0000000000000000e+00
405 403       0.0000000000000000e+00
405 404       0.0000000000000000e+00
405 430       0.0000000000000000e+00
405 431       0.0000000000000000e+00
405 432       0.0000000000000000e+00
406 406       0.0000000000000000e+00
406 151       0.0000000000000000e+00
406 152       0.0000000000000000e+00
406 153       0.0000000000000000e+00
406 154       0.0000000000000000e+00
406 155       0.0000000000000000e+00
406 156       0.0000000000000000e+00
406 166       0.0000000000000000e+00
406 167       0.0000000000000000e+00
406 168       0.0000000000000000e+00
406 169       0.0000000000000000e+00
406 170       0.0000000000000000e+00
406 171       0.0000000000000000e+00
406 211       0.0000000000000000e+00
406 212       0.0000000000000000e+00
406 213       0.0000000000000000e+00
406 214       0.0000000000000000e+00
406 215       0.0000000000000000e+00
406 216       0.0000000000000000e+00
406 226       0.0000000000000000e+00
406 227       0.0000000000000000e+00
406 228       0.0000000000000000e+00
406 229       0.0000000000000000e+00
406 230       0.0000000000000000e+00
406 231       0.0000000000000000e+00
406 379       0.0000000000000000e+00
406 380       0.0000000000000000e+00
406 381       0.0000000000000000e+00
406 407       0.0000000000000000e+00
406 408       0.0000000000000000e+00
406 433       0.0000000000000000e+00
406 434       0.0000000000000000e+00
406 435       0.0000000000000000e+00
407 407       0.0000000000000000e+00
407 151       0.0000000000000000e+00
407 152       0.0000000000000000e+00
407 153       0.0000000000000000e+00
407 154       0.0000000000000000e+00
407 155       0.0000000000000000e+00
407 156       0.0000000000000000e+00
407 166       0.0000000000000000e+00
407 167       0.0000000000000000e+00
407 168       0.0000000000000000e+00
407 169       0.0000000000000000e+00
407 170       0.0000000000000000e+00
407 171       0.0000000000000000e+00
407 211       0.0000000000000000e+00
407 212       0.0000000000000000e+00
407 213       0.0000000000000000e+00
407 214       0.0000000000000000e+00
407 215       0.0000000000000000e+00
407 216       0.0000000000000000e+00
407 226       0.0000000000000000e+00
407 227       0.0000000000000000e+00
407 228       0.0000000000000000e+00
407 229       0.0000000000000000e+00
407 230       0.0000000000000000e+00
407 231       0.0000000000000000e+00
407 379       0.0000000000000000e+00
407 380       0.0000000000000000e+00
407 381       0.0000000000000000e+00
407 406       0.0000000000000000e+00
407 408       0.0000000000000000e+00
407 433       0.0000000000000000e+00
407 434       0.0000000000000000e+00
407 435       0.0000000000000000e+00
408 408       0.0000000000000000e+00
408 151       0.0000000000000000e+00
408 152       0.0000000000000000e+00
408 153       0.0000000000000000e+00
408 154       0.0000000000000000e+00
408 155       0.0000000000000000e+00
408 156       0.0000000000000000e+00
408 166       0.0000000000000000e+00
408 167       0.0000000000000000e+00
408 168       0.0000000000000000e+00
408 169       0.0000000000000000e+00
408 170       0.0000000000000000e+00
408 171       0.0000000000000000e+00
408 211       0.0000000000000000e+00
408 212       0.0000000000000000e+00
408 213       0.0000000000000000e+00
408 214       0.0000000000000000e+00
408 215       0.0000000000000000e+00
408 216       0.0000000000000000e+00
408 226       0.0000000000000000e+00
408 227       0.0000000000000000e+00
408 228       0.0000000000000000e+00
408 229       0.0000000000000000e+00
408 230       0.0000000000000000e+00
408 231       0.0000000000000000e+00
408 379       0.0000000000000000e+00
408 380       0.0000000000000000e+00
408 381       0.0000000000000000e+00
408 406       0.0000000000000000e+00
408 407       0.0000000000000000e+00
408 433       0.0000000000000000e+00
408 434       0.0000000000000000e+00
408 435       0.0000000000000000e+00
409 409       0.0000000000000000e+00
409 166       0.0000000000000000e+00
409 167       0.0000000000000000e+00
409 168       0.0000000000000000e+00
409 169       0.0000000000000000e+00
409 170       0.0000000000000000e+00
409 171       0.0000000000000000e+00
409 181       0.0000000000000000e+00
409 182       0.0000000000000000e+00
409 183       0.0000000000000000e+00
409 184       0.0000000000000000e+00
409 185       0.0000000000000000e+00
409 186       0.0000000000000000e+00
409 226       0.0000000000000000e+00
409 227       0.0000000000000000e+00
409 228       0.0000000000000000e+00
409 229       0.0000000000000000e+00
409 230       0.0000000000000000e+00
409 231       0.0000000000000000e+00
409 241       0.0000000000000000e+00
409 242       0.0000000000000000e+00
409 243       0.0000000000000000e+00
409 244       0.0000000000000000e+00
409 245       0.0000000000000000e+00
409 246       0.0000000000000000e+00
409 382       0.0000000000000000e+00
409 383       0.0000000000000000e+00
409 384       0.0000000000000000e+00
409 410       0.0000000000000000e+00
409 411       0.0000000000000000e+00
409 436       0.0000000000000000e+00
409 437       0.0000000000000000e+00
409 438       0.0000000000000000e+00
410 410       0.0000000000000000e+00
410 166       0.0000000000000000e+00
410 167       0.0000000000000000e+00
410 168       0.0000000000000000e+00
410 169       0.0000000000000000e+00
410 170       0.0000000000000000e+00
410 171       0.0000000000000000e+00
410 181       0.0000000000000000e+00
410 182       0.0000000000000000e+00
410 183       0.0000000000000000e+00
410 184       0.0000000000000000e+00
410 185       0.0000000000000000e+00
410 186       0.0000000000000000e+00
410 226       0.0000000000000000e+00
410 227       0.0000000000000000e+00
410 228       0.0000000000000000e+00
410 229       0.0000000000000000e+00
410 230       0.0000000000000000e+00
410 231       0.0000000000000000e+00
410 241       0.0000000000000000e+00
410 242       0.0000000000000000e+00
410 243       0.0000000000000000e+00
410 244       0.0000000000000000e+00
410 245       0.0000000000000000e+00
410 246       0.0000000000000000e+00
410 382       0.0000000000000000e+00
410 383       0.0000000000000000e+00
410 384       0.0000000000000000e+00
410 409       0.0000000000000000e+00
410 411       0.0000000000000000e+00
410 436       0.0000000000000000e+00
410 437       0.0000000000000000e+00
410 438       0.0000000000000000e+00
411 411       0.0000000000000000e+00
411 166       0.0000000000000000e+00
411 167       0.0000000000000000e+00
411 168       0.0000000000000000e+00
411 169       0.0000000000000000e+00
411 170       0.0000000000000000e+00
411 171       0.0000000000000000e+00
411 181       0.0000000000000000e+00
411 182       0.0000000000000000e+00
411 183       0.0000000000000000e+00
411 184       0.0000000000000000e+00
411 185       0.0000000000000000e+00
411 186       0.0000000000000000e+00
411 226       0.0000000000000000e+00
411 227       0.0000000000000000e+00
411 228       0.0000000000000000e+00
411 229       0.0000000000000000e+00
411 230       0.0000000000000000e+00
411 231       0.0000000000000000e+00
411 241       0.0000000000000000e+00
411 242       0.0000000000000000e+00
411 243       0.0000000000000000e+00
411 244       0.0000000000000000e+00
411 245       0.0000000000000000e+00
411 246       0.0000000000000000e+00
411 382       0.0000000000000000e+00
411 383       0.0000000000000000e+00
411 384       0.0000000000000000e+00
411 409       0.0000000000000000e+00
411 410       0.0000000000000000e+00
411 436       0.0000000000000000e+00
411 437       0.0000000000000000e+00
411 438       0.0000000000000000e+00
412 412       0.0000000000000000e+00
412 196       0.0000000000000000e+00
412 197       0.0000000000000000e+00
412 198       0.0000000000000000e+00
412 199       0.0000000000000000e+00
412 200       0.0000000000000000e+00
412 201       0.0000000000000000e+00
412 211       0.0000000000000000e+00
412 212       0.0000000000000000e+00
412 213       0.0000000000000000e+00
412 214       0.0000000000000000e+00
412 215       0.0000000000000000e+00
412 216       0.0000000000000000e+00
412 256       0.0000000000000000e+00
412 257       0.0000000000000000e+00
412 258       0.0000000000000000e+00
412 259       0.0000000000000000e+00
412 260       0.0000000000000000e+00
412 261       0.0000000000000000e+00
412 271       0.0000000000000000e+00
412 272       0.0000000000000000e+00
412 273       0.0000000000000000e+00
412 274       0.0000000000000000e+00
412 275       0.0000000000000000e+00
412 276       0.0000000000000000e+00
412 385       0.0000000000000000e+00
412 386       0.0000000000000000e+00
412 387       0.0000000000000000e+00
412 413       0.0000000000000000e+00
412 414       0.0000000000000000e+00
412 439       0.0000000000000000e+00
412 440       0.0000000000000000e+00
412 441       0.0000000000000000e+00
413 413       0.0000000000000000e+00
413 196       0.0000000000000000e+00
413 197       0.0000000000000000e+00
413 198       0.0000000000000000e+00
413 199       0.0000000000000000e+00
413 200       0.0000000000000000e+00
413 201       0.0000000000000000e+00
413 211       0.0000000000000000e+00
413 212       0.0000000000000000e+00
413 213       0.0000000000000000e+00
413 214       0.0000000000000000e+00
413 215       0.0000000000000000e+00
413 216       0.0000000000000000e+00
413 256       0.0000000000000000e+00
413 257       0.0000000000000000e+00
413 258       0.0000000000000000e+00
413 259       0.0000000000000000e+00
413 260       0.0000000000000000e+00
413 261       0.0000000000000000e+00
413 271       0.0000000000000000e+00
413 272       0.0000000000000000e+00
413 273       0.0000000000000000e+00
413 274       0.0000000000000000e+00
413 275       0.0000000000000000e+00
413 276       0.0000000000000000e+00
413 385       0.0000000000000000e+00
413 386       0.0000000000000000e+00
413 387       0.0000000000000000e+00
413 412       0.0000000000000000e+00
413 414       0.0000000000000000e+00
413 439       0.0000000000000000e+00
413 440       0.0000000000000000e+00
413 441       0.0000000000000000e+00
414 414       0.0000000000000000e+00
414 196       0.0000000000000000e+00
414 197       0.0000000000000000e+00
414 198       0.0000000000000000e+00
414 199       0.0000000000000000e+00
414 200       0.0000000000000000e+00
414 201       0.0000000000000000e+00
414 211       0.0000000000000000e+00
414 212       0.0000000000000000e+00
414 213       0.0000000000000000e+00
414 214       0.0000000000000000e+00
414 215       0.0000000000000000e+00
414 216       0.0000000000000000e+00
414 256       0.0000000000000000e+00
414 257       0.0000000000000000e+00
414 258       0.0000000000000000e+00
414 259       0.0000000000000000e+00
414 260       0.0000000000000000e+00
414 261       0.0000000000000000e+00
414 271       0.0000000000000000e+00
414 272       0.0000000000000000e+00
414 273       0.0000000000000000e+00
414 274       0.0000000000000000e+00
414 275       0.0000000000000000e+00
414 276       0.0000000000000000e+00
414 385       0.0000000000000000e+00
414 386       0.0000000000000000e+00
414 387       0.0000000000000000e+00
414 412       0.0000000000000000e+00
414 413       0.0000000000000000e+00
414 439       0.0000000000000000e+00
414 440       0.0000000000000000e+00
414 441       0.0000000000000000e+00
415 415       0.0000000000000000e+00
415 211       0.0000000000000000e+00
415 212       0.0000000000000000e+00
415 213       0.0000000000000000e+00
415 214       0.0000000000000000e+00
415 215       0.0000000000000000e+00
415 216       0.0000000000000000e+00
415 226       0.0000000000000000e+00
415 227       0.0000000000000000e+00
415 228       0.0000000000000000e+00
415 229       0.0000000000000000e+00
415 230       0.0000000000000000e+00
415 231       0.0000000000000000e+00
415 271       0.0000000000000000e+00
415 272       0.0000000000000000e+00
415 273       0.0000000000000000e+00
415 274       0.0000000000000000e+00
415 275       0.0000000000000000e+00
415 276       0.0000000000000000e+00
415 286       0.0000000000000000e+00
415 287       0.0000000000000000e+00
415 288       0.0000000000000000e+00
415 289       0.0000000000000000e+00
415 290       0.0000000000000000e+00
415 291       0.0000000000000000e+00
415 388       0.0000000000000000e+00
415 389       0.0000000000000000e+00
415 390       0.0000000000000000e+00
415 416       0.0000000000000000e+00
415 417       0.0000000000000000e+00
415 442       0.0000000000000000e+00
415 443       0.0000000000000000e+00
415 444       0.0000000000000000e+00
416 416       0.0000000000000000e+00
416 211       0.0000000000000000e+00
416 212       0.0000000000000000e+00
416 213       0.0000000000000000e+00
416 214       0.0000000000000000e+00
416 215       0.0000000000000000e+00
416 216       0.0000000000000000e+00
416 226       0.0000000000000000e+00
416 227       0.0000000000000000e+00
416 228       0.0000000000000000e+00
416 229       0.0000000000000000e+00
416 230       0.0000000000000000e+00
416 231       0.0000000000000000e+00
416 271       0.0000000000000000e+00
416 272       0.0000000000000000e+00
416 273       0.0000000000000000e+00
416 274       0.0000000000000000e+00
416 275       0.0000000000000000e+00
416 276       0.0000000000000000e+00
416 286       0.0000000000000000e+00
416 287       0.0000000000000000e+00
416 288       0.0000000000000000e+00
416 289       0.0000000000000000e+00
416 290       0.0000000000000000e+00
416 291       0.0000000000000000e+00
416 388       0.0000000000000000e+00
416 389       0.0000000000000000e+00
416 390       0.0000000000000000e+00
416 415       0.0000000000000000e+00
416 417       0.0000000000000000e+00
416 442       0.0000000000000000e+00
416 443       0.0000000000000000e+00
416 444       0.0000000000000000e+00
417 417       0.0000000000000000e+00
417 211       0.0000000000000000e+00
417 212       0.0000000000000000e+00
417 213       0.0000000000000000e+00
417 214       0.0000000000000000e+00
417 215       0.0000000000000000e+00
417 216       0.0000000000000000e+00
417 226       0.0000000000000000e+00
417 227       0.0000000000000000e+00
417 228       0.0000000000000000e+00
417 229       0.0000000000000000e+00
417 230       0.0000000000000000e+00
417 231       0.0000000000000000e+00
417 271       0.0000000000000000e+00
417 272       0.0000000000000000e+00
417 273       0.0000000000000000e+00
417 274       0.0000000000000000e+00
417 275       0.0000000000000000e+00
417 276       0.0000000000000000e+00
417 286       0.0000000000000000e+00
417 287       0.0000000000000000e+00
417 288       0.0000000000000000e+00
417 289       0.0000000000000000e+00
417 290       0.0000000000000000e+00
417 291       0.0000000000000000e+00
417 388       0.0000000000000000e+00
417 389       0.0000000000000000e+00
417 390       0.0000000000000000e+00
417 415       0.0000000000000000e+00
417 416       0.0000000000000000e+00
417 442       0.0000000000000000e+00
417 443       0.0000000000000000e+00
417 444       0.0000000000000000e+00
418 418       0.0000000000000000e+00
418 226       0.0000000000000000e+00
418 227       0.0000000000000000e+00
418 228       0.0000000000000000e+00
418 229       0.0000000000000000e+00
418 230       0.0000000000000000e+00
418 231       0.0000000000000000e+00
418 241       0.0000000000000000e+00
418 242       0.0000000000000000e+00
418 243       0.0000000000000000e+00
418 244       0.0000000000000000e+00
418 245       0.0000000000000000e+00
418 246       0.0000000000000000e+00
418 286       0.0000000000000000e+00
418 287       0.0000000000000000e+00
418 288       0.0000000000000000e+00
418 289       0.0000000000000000e+00
418 290       0.0000000000000000e+00
418 291       0.0000000000000000e+00
418 301       0.0000000000000000e+00
418 302       0.0000000000000000e+00
418 303       0.0000000000000000e+00
418 304       0.0000000000000000e+00
418 305       0.0000000000000000e+00
418 306       0.0000000000000000e+00
418 391       0.0000000000000000e+00
418 392       0.0000000000000000e+00
418 393       0.0000000000000000e+00
418 419       0.0000000000000000e+00
418 420       0.0000000000000000e+00
418 445       0.0000000000000000e+00
418 446       0.0000000000000000e+00
418 447       0.0000000000000000e+00
419 419       0.0000000000000000e+00
419 226       0.0000000000000000e+00
419 227       0.0000000000000000e+00
419 228       0.0000000000000000e+00
419 229       0.0000000000000000e+00
419 230       0.0000000000000000e+00
419 231       0.0000000000000000e+00
419 241       0.0000000000000000e+00
419 242       0.0000000000000000e+00
419 243       0.0000000000000000e+00
419 244       0.0000000000000000e+00
419 245       0.0000000000000000e+00
419 246       0.0000000000000000e+00
419 286       0.0000000000000000e+00
419 287       0.0000000000000000e+00
419 288       0.0000000000000000e+00
419 289       0.0000000000000000e+00
419 290       0.0000000000000000e+00
419 291       0.0000000000000000e+00
419 301       0.0000000000000000e+00
419 302       0.0000000000000000e+00
419 303       0.0000000000000000e+00
419 304       0.0000000000000000e+00
419 305       0.0000000000000000e+00
419 306       0.0000000000000000e+00
419 391       0.0000000000000000e+00
419 392       0.0000000000000000e+00
419 393       0.0000000000000000e+00
419 418       0.0000000000000000e+00
419 420       0.0000000000000000e+00
419 445       0.0000000000000000e+00
419 446       0.0000000000000000e+00
419 447       0.0000000000000000e+00
420 420       0.0000000000000000e+00
420 226       0.0000000000000000e+00
420 227       0.0000000000000000e+00
420 228       0.0000000000000000e+00
420 229       0.0000000000000000e+00
420 230       0.0000000000000000e+00
420 231       0.0000000000000000e+00
420 241       0.0000000000000000e+00
420 242       0.0000000000000000e+00
420 243       0.0000000000000000e+00
420 244       0.0000000000000000e+00
420 245       0.0000000000000000e+00
420 246       0.0000000000000000e+00
420 286       0.0000000000000000e+00
420 287       0.0000000000000000e+00
420 288       0.0000000000000000e+00
420 289       0.0000000000000000e+00
420 290       0.0000000000000000e+00
420 291       0.0000000000000000e+00
420 301       0.0000000000000000e+00
420 302       0.0000000000000000e+00
420 303       0.0000000000000000e+00
420 304       0.0000000000000000e+00
420 305       0.0000000000000000e+00
420 306       0.0000000000000000e+00
420 391       0.0000000000000000e+00
420 392       0.0000000000000000e+00
420 393       0.0000000000000000e+00
420 418       0.0000000000000000e+00
420 419       0.0000000000000000e+00
420 445       0.0000000000000000e+00
420 446       0.0000000000000000e+00
420 447       0.0000000000000000e+00
421 421       0.0000000000000000e+00
421 256       0.0000000000000000e+00
421 257       0.0000000000000000e+00
421 258       0.0000000000000000e+00
421 259       0.0000000000000000e+00
421 260       0.0000000000000000e+00
421 261       0.0000000000000000e+00
421 271       0.0000000000000000e+00
421 272       0.0000000000000000e+00
421 273       0.0000000000000000e+00
421 274       0.0000000000000000e+00
421 275       0.0000000000000000e+00
421 276       0.0000000000000000e+00
421 316       0.0000000000000000e+00
421 317       0.0000000000000000e+00
421 318       0.0000000000000000e+00
421 319       0.0000000000000000e+00
421 320       0.0000000000000000e+00
421 321       0.0000000000000000e+00
421 331       0.0000000000000000e+00
421 332       0.0000000000000000e+00
421 333       0.0000000000000000e+00
421 334       0.0000000000000000e+00
421 335       0.0000000000000000e+00
421 336       0.0000000000000000e+00
421 394       0.0000000000000000e+00
421 395       0.0000000000000000e+00
421 396       0.0000000000000000e+00
421 422       0.0000000000000000e+00
421 423       0.0000000000000000e+00
421 448       0.0000000000000000e+00
421 449       0.0000000000000000e+00
421 450       0.0000000000000000e+00
422 422       0.0000000000000000e+00
422 256       0.0000000000000000e+00
422 257       0.0000000000000000e+00
422 258       0.0000000000000000e+00
422 259       0.0000000000000000e+00
422 260       0.0000000000000000e+00
422 261       0.0000000000000000e+00
422 271       0.0000000000000000e+00
422 272       0.0000000000000000e+00
422 273       0.0000000000000000e+00
422 274       0.0000000000000000e+00
422 275       0.0000000000000000e+00
422 276       0.0000000000000000e+00
422 316       0.0000000000000000e+00
422 317       0.0000000000000000e+00
422 318       0.0000000000000000e+00
422 319       0.0000000000000000e+00
422 320       0.0000000000000000e+00
422 321       0.0000000000000000e+00
422 331       0.0000000000000000e+00
422 332       0.0000000000000000e+00
422 333       0.0000000000000000e+00
422 334       0.0000000000000000e+00
422 335       0.0000000000000000e+00
422 336       0.0000000000000000e+00
422 394       0.0000000000000000e+00
422 395       0.0000000000000000e+00
422 396       0.0000000000000000e+00
422 421       0.0000000000000000e+00
422 423       0.0000000000000000e+00
422 448       0.0000000000000000e+00
422 449       0.0000000000000000e+00
422 450       0.0000000000000000e+00
423 423       0.0000000000000000e+00
423 256       0.0000000000000000e+00
423 257       0.0000000000000000e+00
423 258       0.0000000000000000e+00
423 259       0.0000000000000000e+00
423 260       0.0000000000000000e+00
423 261       0.0000000000000000e+00
423 271       0.0000000000000000e+00
423 272       0.0000000000000000e+00
423 273       0.0000000000000000e+00
423 274       0.0000000000000000e+00
423 275       0.0000000000000000e+00
423 276       0.0000000000000000e+00
423 316       0.0000000000000000e+00
423 317       0.0000000000000000e+00
423 318       0.0000000000000000e+00
423 319       0.0000000000000000e+00
423 320       0.0000000000000000e+00
423 321       0.0000000000000000e+00
423 331       0.0000000000000000e+00
423 332       0.0000000000000000e+00
423 333       0.0000000000000000e+00
423 334       0.0000000000000000e+00
423 335       0.0000000000000000e+00
423 336       0.0000000000000000e+00
423 394       0.0000000000000000e+00
423 395       0.0000000000000000e+00
423 396       0.0000000000000000e+00
423 421       0.0000000000000000e+00
423 422       0.0000000000000000e+00
423 448       0.0000000000000000e+00
423 449       0.0000000000000000e+00
423 450       0.0000000000000000e+00
424 424       0.0000000000000000e+00
424 271       0.0000000000000000e+00
424 272       0.0000000000000000e+00
424 273       0.0000000000000000e+00
424 274       0.0000000000000000e+00
424 275       0.0000000000000000e+00
424 276       0.0000000000000000e+00
424 286       0.0000000000000000e+00
424 287       0.0000000000000000e+00
424 288       0.0000000000000000e+00
424 289       0.0000000000000000e+00
424 290       0.0000000000000000e+00
424 291       0.0000000000000000e+00
424 331       0.0000000000000000e+00
424 332       0.0000000000000000e+00
424 333       0.0000000000000000e+00
424 334       0.0000000000000000e+00
424 335       0.0000000000000000e+00
424 336       0.0000000000000000e+00
424 346       0.0000000000000000e+00
424 347       0.0000000000000000e+00
424 348       0.0000000000000000e+00
424 349       0.0000000000000000e+00
424 350       0.0000000000000000e+00
424 351       0.0000000000000000e+00
424 397       0.0000000000000000e+00
424 398       0.0000000000000000e+00
424 399       0.0000000000000000e+00
424 425       0.0000000000000000e+00
424 426       0.0000000000000000e+00
424 451       0.0000000000000000e+00
424 452       0.0000000000000000e+00
424 453       0.0000000000000000e+00
425 425       0.0000000000000000e+00
425 271       0.0000000000000000e+00
425 272       0.0000000000000000e+00
425 273       0.0000000000000000e+00
425 274       0.0000000000000000e+00
425 275       0.0000000000000000e+00
425 276       0.0000000000000000e+00
425 286       0.0000000000000000e+00
425 287       0.0000000000000000e+00
425 288       0.0000000000000000e+00
425 289       0.0000000000000000e+00
425 290       0.0000000000000000e+00
425 291       0.0000000000000000e+00
425 331       0.0000000000000000e+00
425 332       0.0000000000000000e+00
425 333       0.0000000000000000e+00
425 334       0.0000000000000000e+00
425 335       0.0000000000000000e+00
425 336       0.0000000000000000e+00
425 346       0.0000000000000000e+00
425 347       0.0000000000000000e+00
425 348       0.0000000000000000e+00
425 349       0.0000000000000000e+00
425 350       0.0000000000000000e+00
425 351       0.0000000000000000e+00
425 397       0.0000000000000000e+00
425 398       0.0000000000000000e+00
425 399       0.0000000000000000e+00
425 424       0.0000000000000000e+00
425 426       0.0000000000000000e+00
425 451       0.0000000000000000e+00
425 452       0.0000000000000000e+00
425 453       0.0000000000000000e+00
426 426       0.0000000000000000e+00
426 271       0.0000000000000000e+00
426 272       0.0000000000000000e+00
426 273       0.0000000000000000e+00
426 274       0.0000000000000000e+00
426 275       0.0000000000000000e+00
426 276       0.0000000000000000e+00
426 286       0.0000000000000000e+00
426 287       0.0000000000000000e+00
426 288       0.0000000000000000e+00
426 289       0.0000000000000000e+00
426 290       0.0000000000000000e+00
426 291       0.0000000000000000e+00
426 331       0.0000000000000000e+00
426 332       0.0000000000000000e+00
426 333       0.0000000000000000e+00
426 334       0.0000000000000000e+00
426 335       0.0000000000000000e+00
426 336       0.0000000000000000e+00
426 346       0.0000000000000000e+00
426 347       0.0000000000000000e+00
426 348       0.0000000000000000e+00
426 349       0.0000000000000000e+00
426 350       0.0000000000000000e+00
426 351       0.0000000000000000e+00
426 397       0.0000000000000000e+00
426 398       0.0000000000000000e+00
426 399       0.0000000000000000e+00
426 424       0.0000000000000000e+00
426 425       0.0000000000000000e+00
426 451       0.0000000000000000e+00
426 452       0.0000000000000000e+00
426 453       0.0000000000000000e+00
427 427       0.0000000000000000e+00
427 286       0.0000000000000000e+00
427 287       0.0000000000000000e+00
427 288       0.0000000000000000e+00
427 289       0.0000000000000000e+00
427 290       0.0000000000000000e+00
427 291       0.0000000000000000e+00
427 301       0.0000000000000000e+00
427 302       0.0000000000000000e+00
427 303       0.0000000000000000e+00
427 304       0.0000000000000000e+00
427 305       0.0000000000000000e+00
427 306       0.0000000000000000e+00
427 346       0.0000000000000000e+00
427 347       0.0000000000000000e+00
427 348       0.0000000000000000e+00
427 349       0.0000000000000000e+00
427 350       0.0000000000000000e+00
427 351       0.0000000000000000e+00
427 361       0.0000000000000000e+00
427 362       0.0000000000000000e+00
427 363       0.0000000000000000e+00
427 364       0.0000000000000000e+00
427 365       0.0000000000000000e+00
427 366       0.0000000000000000e+00
427 400       0.0000000000000000e+00
427 401       0.0000000000000000e+00
427 402       0.0000000000000000e+00
427 428       0.0000000000000000e+00
427 429       0.0000000000000000e+00
427 454       0.0000000000000000e+00
427 455       0.0000000000000000e+00
427 456       0.0000000000000000e+00
428 428       0.0000000000000000e+00
428 286       0.0000000000000000e+00
428 287       0.0000000000000000e+00
428 288       0.0000000000000000e+00
428 289       0.0000000000000000e+00
428 290       0.0000000000000000e+00
428 291       0.0000000000000000e+00
428 301       0.0000000000000000e+00
428 302       0.0000000000000000e+00
428 303       0.0000000000000000e+00
428 304       0.0000000000000000e+00
428 305       0.0000000000000000e+00
428 306       0.0000000000000000e+00
428 346       0.0000000000000000e+00
428 347       0.0000000000000000e+00
428 348       0.0000000000000000e+00
428 349       0.0000000000000000e+00
428 350       0.0000000000000000e+00
428 351       0.0000000000000000e+00
428 361       0.0000000000000000e+00
428 362       0.0000000000000000e+00
428 363       0.0000000000000000e+00
428 364       0.0000000000000000e+00
428 365       0.0000000000000000e+00
428 366       0.0000000000000000e+00
428 400       0.0000000000000000e+00
428 401       0.0000000000000000e+00
428 402       0.0000000000000000e+00
428 427       0.0000000000000000e+00
428 429       0.0000000000000000e+00
428 454       0.0000000000000000e+00
428 455       0.0000000000000000e+00
428 456       0.0000000000000000e+00
429 429       0.0000000000000000e+00
429 286       0.0000000000000000e+00
429 287       0.0000000000000000e+00
429 288       0.0000000000000000e+00
429 289       0.0000000000000000e+00
429 290       0.0000000000000000e+00
429 291       0.0000000000000000e+00
429 301       0.0000000000000000e+00
429 302       0.0000000000000000e+00
429 303       0.0000000000000000e+00
429 304       0.0000000000000000e+00
429 305       0.0000000000000000e+00
429 306       0.0000000000000000e+00
429 346       0.0000000000000000e+00
429 347       0.0000000000000000e+00
429 348       0.0000000000000000e+00
429 349       0.0000000000000000e+00
429 350       0.0000000000000000e+00
429 351       0.0000000000000000e+00
429 361       0.0000000000000000e+00
429 362       0.0000000000000000e+00
429 363       0.0000000000000000e+00
429 364       0.0000000000000000e+00
429 365       0.0000000000000000e+00
429 366       0.0000000000000000e+00
429 400       0.0000000000000000e+00
429 401       0.0000000000000000e+00
429 402       0.0000000000000000e+00
429 427       0.0000000000000000e+00
429 428       0.0000000000000000e+00
429 454       0.0000000000000000e+00
429 455       0.0000000000000000e+00
429 456       0.0000000000000000e+00
430 430       0.0000000000000000e+00
430 376       0.0000000000000000e+00
430 377       0.0000000000000000e+00
430 378       0.0000000000000000e+00
430 403       0.0000000000000000e+00
430 404       0.0000000000000000e+00
430 405       0.0000000000000000e+00
430 431       0.0000000000000000e+00
430 432       0.0000000000000000e+00
431 431       0.0000000000000000e+00
431 376       0.0000000000000000e+00
431 377       0.0000000000000000e+00
431 378       0.0000000000000000e+00
431 403       0.0000000000000000e+00
431 404       0.0000000000000000e+00
431 405       0.0000000000000000e+00
431 430       0.0000000000000000e+00
431 432       0.0000000000000000e+00
432 432       0.0000000000000000e+00
432 376       0.0000000000000000e+00
432 377       0.0000000000000000e+00
432 378       0.0000000000000000e+00
432 403       0.0000000000000000e+00
432 404       0.0000000000000000e+00
432 405       0.0000000000000000e+00
432 430       0.0000000000000000e+00
432 431       0.0000000000000000e+00
433 433       0.0000000000000000e+00
433 379       0.0000000000000000e+00
433 380       0.0000000000000000e+00
433 381       0.0000000000000000e+00
433 406       0.0000000000000000e+00
433 407       0.0000000000000000e+00
433 408       0.0000000000000000e+00
433 434       0.0000000000000000e+00
433 435       0.0000000000000000e+00
434 434       0.0000000000000000e+00
434 379       0.0000000000000000e+00
434 380       0.0000000000000000e+00
434 381       0.0000000000000000e+00
434 406       0.0000000000000000e+00
434 407       0.0000000000000000e+00
434 408       0.0000000000000000e+00
434 433       0.0000000000000000e+00
434 435       0.0000000000000000e+00
435 435       0.0000000000000000e+00
435 379       0.0000000000000000e+00
435 380       0.0000000000000000e+00
435 381       0.0000000000000000e+00
435 406       0.0000000000000000e+00
435 407       0.0000000000000000e+00
435 408       0.0000000000000000e+00
435 433       0.0000000000000000e+00
435 434       0.0000000000000000e+00
436 436       0.0000000000000000e+00
436 382       0.0000000000000000e+00
436 383       0.0000000000000000e+00
436 384       0.0000000000000000e+00
436 409       0.0000000000000000e+00
436 410       0.0000000000000000e+00
436 411       0.0000000000000000e+00
436 437       0.0000000000000000e+00
436 438       0.0000000000000000e+00
437 437       0.0000000000000000e+00
437 382       0.0000000000000000e+00
437 383       0.0000000000000000e+00
437 384       0.0000000000000000e+00
437 409       0.0000000000000000e+00
437 410       0.0000000000000000e+00
437 411       0.0000000000000000e+00
437 436       0.0000000000000000e+00
437 438       0.0000000000000000e+00
438 438       0.0000000000000000e+00
438 382       0.0000000000000000e+00
438 383       0.0000000000000000e+00
438 384       0.0000000000000000e+00
438 409       0.0000000000000000e+00
438 410       0.0000000000000000e+00
438 411       0.0000000000000000e+00
438 436       0.0000000000000000e+00
438 437       0.0000000000000000e+00
439 439       0.0000000000000000e+00
439 385       0.0000000000000000e+00
439 386       0.0000000000000000e+00
439 387       0.0000000000000000e+00
439 412       0.0000000000000000e+00
439 413       0.0000000000000000e+00
439 414       0.0000000000000000e+00
439 440       0.0000000000000000e+00
439 441       0.0000000000000000e+00
440 440       0.0000000000000000e+00
440 385       0.0000000000000000e+00
440 386       0.0000000000000000e+00
440 387       0.0000000000000000e+00
440 412       0.0000000000000000e+00
440 413       0.0000000000000000e+00
440 414       0.0000000000000000e+00
440 439       0.0000000000000000e+00
440 441       0.0000000000000000e+00
441 441       0.0000000000000000e+00
441 385       0.0000000000000000e+00
441 386       0.0000000000000000e+00
441 387       0.0000000000000000e+00
441 412       0.0000000000000000e+00
441 413       0.0000000000000000e+00
441 414       0.0000000000000000e+00
441 439       0.0000000000000000e+00
441 440       0.0000000000000000e+00
442 442       0.0000000000000000e+00
442 388       0.0000000000000000e+00
442 389       0.0000000000000000e+00
442 390       0.0000000000000000e+00
442 415       0.0000000000000000e+00
442 416       0.0000000000000000e+00
442 417       0.0000000000000000e+00
442 443       0.0000000000000000e+00
442 444       0.0000000000000000e+00
443 443       0.0000000000000000e+00
443 388       0.0000000000000000e+00
443 389       0.0000000000000000e+00
443 390       0.0000000000000000e+00
443 415       0.0000000000000000e+00
443 416       0.0000000000000000e+00
443 417       0.0000000000000000e+00
443 442       0.0000000000000000e+00
443 444       0.0000000000000000e+00
444 444       0.0000000000000000e+00
444 388       0.0000000000000000e+00
444 389       0.0000000000000000e+00
444 390       0.0000000000000000e+00
444 415       0.0000000000000000e+00
444 416       0.0000000000000000e+00
444 417       0.0000000000000000e+00
444 442       0.0000000000000000e+00
444 443       0.0000000000000000e+00
445 445       0.0000000000000000e+00
445 391       0.0000000000000000e+00
445 392       0.0000000000000000e+00
445 393       0.0000000000000000e+00
445 418       0.0000000000000000e+00
445 419       0.0000000000000000e+00
445 420       0.0000000000000000e+00
445 446       0.0000000000000000e+00
445 447       0.0000000000000000e+00
446 446       0.0000000000000000e+00
446 391       0.0000000000000000e+00
446 392       0.0000000000000000e+00
446 393       0.0000000000000000e+00
446 418       0.0000000000000000e+00
446 419       0.0000000000000000e+00
446 420       0.0000000000000000e+00
446 445       0.0000000000000000e+00
446 447       0.0000000000000000e+00
447 447       0.0000000000000000e+00
447 391       0.0000000000000000e+00
447 392       0.0000000000000000e+00
447 393       0.0000000000000000e+00
447 418       0.0000000000000000e+00
447 419       0.0000000000000000e+00
447 420       0.0000000000000000e+00
447 445       0.0000000000000000e+00
447 446       0.0000000000000000e+00
448 448       0.0000000000000000e+00
448 394       0.0000000000000000e+00
448 395       0.0000000000000000e+00
448 396       0.0000000000000000e+00
448 421       0.0000000000000000e+00
448 422       0.0000000000000000e+00
448 423       0.0000000000000000e+00
448 449       0.0000000000000000e+00
448 450       0.0000000000000000e+00
449 449       0.0000000000000000e+00
449 394       0.0000000000000000e+00
449 395       0.0000000000000000e+00
449 396       0.0000000000000000e+00
449 421       0.0000000000000000e+00
449 422       0.0000000000000000e+00
449 423       0.0000000000000000e+00
449 448       0.0000000000000000e+00
449 450       0.0000000000000000e+00
450 450       0.0000000000000000e+00
450 394       0.0000000000000000e+00
450 395       0.0000000000000000e+00
450 396       0.0000000000000000e+00
450 421       0.0000000000000000e+00
450 422       0.0000000000000000e+00
450 423       0.0000000000000000e+00
450 448       0.0000000000000000e+00
450 449       0.0000000000000000e+00
451 451       0.0000000000000000e+00
451 397       0.0000000000000000e+00
451 398       0.0000000000000000e+00
451 399       0.0000000000000000e+00
451 424       0.0000000000000000e+00
451 425       0.0000000000000000e+00
451 426       0.0000000000000000e+00
451 452       0.0000000000000000e+00
451 453       0.0000000000000000e+00
452 452       0.0000000000000000e+00
452 397       0.0000000000000000e+00
452 398       0.0000000000000000e+00
452 399       0.0000000000000000e+00
452 424       0.0000000000000000e+00
452 425       0.0000000000000000e+00
452 426       0.0000000000000000e+00
452 451       0.0000000000000000e+00
452 453       0.0000000000000000e+00
453 453       0.0000000000000000e+00
453 397       0.0000000000000000e+00
453 398       0.0000000000000000e+00
453 399       0.0000000000000000e+00
453 424       0.0000000000000000e+00
453 425       0.0000000000000000e+00
453 426       0.0000000000000000e+00
453 451       0.0000000000000000e+00
453 452       0.0000000000000000e+00
454 454       0.0000000000000000e+00
454 400       0.0000000000000000e+00
454 401       0.0000000000000000e+00
454 402       0.0000000000000000e+00
454 427       0.0000000000000000e+00
454 428       0.0000000000000000e+00
454 429       0.0000000000000000e+00
454 455       0.0000000000000000e+00
454 456       0.0000000000000000e+00
455 455       0.0000000000000000e+00
455 400       0.0000000000000000e+00
455 401       0.0000000000000000e+00
455 402       0.0000000000000000e+00
455 427       0.0000000000000000e+00
455 428       0.0000000000000000e+00
455 429       0.0000000000000000e+00
455 454       0.0000000000000000e+00
455 456       0.0000000000000000e+00
456 456       0.0000000000000000e+00
456 400       0.0000000000000000e+00
456 401       0.0000000000000000e+00
456 402       0.0000000000000000e+00
456 427       0.0000000000000000e+00
456 428       0.0000000000000000e+00
456 429       0.0000000000000000e+00
456 454       0.0000000000000000e+00
456 455       0.0000000000000000e+00
