%%MatrixMarket matrix coordinate real general
456 456 21636
1 1       0.0000000000000000e+00
1 2       0.0000000000000000e+00
1 3       0.0000000000000000e+00
1 4       0.0000000000000000e+00
1 5       0.0000000000000000e+00
1 6       0.0000000000000000e+00
1 16       0.0000000000000000e+00
1 17       0.0000000000000000e+00
1 18       0.0000000000000000e+00
1 19       0.0000000000000000e+00
1 20       0.0000000000000000e+00
1 21       0.0000000000000000e+00
1 46       0.0000000000000000e+00
1 47       0.0000000000000000e+00
1 48       0.0000000000000000e+00
1 49       0.0000000000000000e+00
1 50       0.0000000000000000e+00
1 51       0.0000000000000000e+00
1 61       0.0000000000000000e+00
1 62       0.0000000000000000e+00
1 63       0.0000000000000000e+00
1 64       0.0000000000000000e+00
1 65       0.0000000000000000e+00
1 66       0.0000000000000000e+00
2 2       0.0000000000000000e+00
2 1       0.0000000000000000e+00
2 3       0.0000000000000000e+00
2 4       0.0000000000000000e+00
2 5       0.0000000000000000e+00
2 6       0.0000000000000000e+00
2 16       0.0000000000000000e+00
2 17       0.0000000000000000e+00
2 18       0.0000000000000000e+00
2 19       0.0000000000000000e+00
2 20       0.0000000000000000e+00
2 21       0.0000000000000000e+00
2 46       0.0000000000000000e+00
2 47       0.0000000000000000e+00
2 48       0.0000000000000000e+00
2 49       0.0000000000000000e+00
2 50       0.0000000000000000e+00
2 51       0.0000000000000000e+00
2 61       0.0000000000000000e+00
2 62       0.0000000000000000e+00
2 63       0.0000000000000000e+00
2 64       0.0000000000000000e+00
2 65       0.0000000000000000e+00
2 66       0.0000000000000000e+00
3 3       0.0000000000000000e+00
3 1       0.0000000000000000e+00
3 2       0.0000000000000000e+00
3 4       0.0000000000000000e+00
3 5       0.0000000000000000e+00
3 6       0.0000000000000000e+00
3 16       0.0000000000000000e+00
3 17       0.0000000000000000e+00
3 18       0.0000000000000000e+00
3 19       0.0000000000000000e+00
3 20       0.0000000000000000e+00
3 21       0.0000000000000000e+00
3 46       0.0000000000000000e+00
3 47       0.0000000000000000e+00
3 48       0.0000000000000000e+00
3 49       0.0000000000000000e+00
3 50       0.0000000000000000e+00
3 51       0.0000000000000000e+00
3 61       0.0000000000000000e+00
3 62       0.0000000000000000e+00
3 63       0.0000000000000000e+00
3 64       0.0000000000000000e+00
3 65       0.0000000000000000e+00
3 66       0.0000000000000000e+00
4 4       0.0000000000000000e+00
4 1       0.0000000000000000e+00
4 2       0.0000000000000000e+00
4 3       0.0000000000000000e+00
4 5       0.0000000000000000e+00
4 6       0.0000000000000000e+00
4 7       0.0000000000000000e+00
4 8       0.0000000000000000e+00
4 9       0.0000000000000000e+00
4 16       0.0000000000000000e+00
4 17       0.0000000000000000e+00
4 18       0.0000000000000000e+00
4 19       0.0000000000000000e+00
4 20       0.0000000000000000e+00
4 21       0.0000000000000000e+00
4 22       0.0000000000000000e+00
4 23       0.0000000000000000e+00
4 24       0.0000000000000000e+00
4 46       0.0000000000000000e+00
4 47       0.0000000000000000e+00
4 48       0.0000000000000000e+00
4 49       0.0000000000000000e+00
4 50       0.0000000000000000e+00
4 51       0.0000000000000000e+00
4 52       0.0000000000000000e+00
4 53       0.0000000000000000e+00
4 54       0.0000000000000000e+00
4 61       0.0000000000000000e+00
4 62       0.0000000000000000e+00
4 63       0.0000000000000000e+00
4 64       0.0000000000000000e+00
4 65       0.0000000000000000e+00
4 66       0.0000000000000000e+00
4 67       0.0000000000000000e+00
4 68       0.0000000000000000e+00
4 69       0.0000000000000000e+00
5 5       0.0000000000000000e+00
5 1       0.0000000000000000e+00
5 2       0.0000000000000000e+00
5 3       0.0000000000000000e+00
5 4       0.0000000000000000e+00
5 6       0.0000000000000000e+00
5 7       0.0000000000000000e+00
5 8       0.0000000000000000e+00
5 9       0.0000000000000000e+00
5 16       0.0000000000000000e+00
5 17       0.0000000000000000e+00
5 18       0.0000000000000000e+00
5 19       0.0000000000000000e+00
5 20       0.0000000000000000e+00
5 21       0.0000000000000000e+00
5 22       0.0000000000000000e+00
5 23       0.0000000000000000e+00
5 24       0.0000000000000000e+00
5 46       0.0000000000000000e+00
5 47       0.0000000000000000e+00
5 48       0.0000000000000000e+00
5 49       0.0000000000000000e+00
5 50       0.0000000000000000e+00
5 51       0.0000000000000000e+00
5 52       0.0000000000000000e+00
5 53       0.0000000000000000e+00
5 54       0.0000000000000000e+00
5 61       0.0000000000000000e+00
5 62       0.0000000000000000e+00
5 63       0.0000000000000000e+00
5 64       0.0000000000000000e+00
5 65       0.0000000000000000e+00
5 66       0.0000000000000000e+00
5 67       0.0000000000000000e+00
5 68       0.0000000000000000e+00
5 69       0.0000000000000000e+00
6 6       0.0000000000000000e+00
6 1       0.0000000000000000e+00
6 2       0.0000000000000000e+00
6 3       0.0000000000000000e+00
6 4       0.0000000000000000e+00
6 5       0.0000000000000000e+00
6 7       0.0000000000000000e+00
6 8       0.0000000000000000e+00
6 9       0.0000000000000000e+00
6 16       0.0000000000000000e+00
6 17       0.0000000000000000e+00
6 18       0.0000000000000000e+00
6 19       0.0000000000000000e+00
6 20       0.0000000000000000e+00
6 21       0.0000000000000000e+00
6 22       0.0000000000000000e+00
6 23       0.0000000000000000e+00
6 24       0.0000000000000000e+00
6 46       0.0000000000000000e+00
6 47       0.0000000000000000e+00
6 48       0.0000000000000000e+00
6 49       0.0000000000000000e+00
6 50       0.0000000000000000e+00
6 51       0.0000000000000000e+00
6 52       0.0000000000000000e+00
6 53       0.0000000000000000e+00
6 54       0.0000000000000000e+00
6 61       0.0000000000000000e+00
6 62       0.0000000000000000e+00
6 63       0.0000000000000000e+00
6 64       0.0000000000000000e+00
6 65       0.0000000000000000e+00
6 66       0.0000000000000000e+00
6 67       0.0000000000000000e+00
6 68       0.0000000000000000e+00
6 69       0.0000000000000000e+00
7 7       0.0000000000000000e+00
7 4       0.0000000000000000e+00
7 5       0.0000000000000000e+00
7 6       0.0000000000000000e+00
7 8       0.0000000000000000e+00
7 9       0.0000000000000000e+00
7 10       0.0000000000000000e+00
7 11       0.0000000000000000e+00
7 12       0.0000000000000000e+00
7 19       0.0000000000000000e+00
7 20       0.0000000000000000e+00
7 21       0.0000000000000000e+00
7 22       0.0000000000000000e+00
7 23       0.0000000000000000e+00
7 24       0.0000000000000000e+00
7 25       0.0000000000000000e+00
7 26       0.0000000000000000e+00
7 27       0.0000000000000000e+00
7 49       0.0000000000000000e+00
7 50       0.0000000000000000e+00
7 51       0.0000000000000000e+00
7 52       0.0000000000000000e+00
7 53       0.0000000000000000e+00
7 54       0.0000000000000000e+00
7 55       0.0000000000000000e+00
7 56       0.0000000000000000e+00
7 57       0.0000000000000000e+00
7 64       0.0000000000000000e+00
7 65       0.0000000000000000e+00
7 66       0.0000000000000000e+00
7 67       0.0000000000000000e+00
7 68       0.0000000000000000e+00
7 69       0.0000000000000000e+00
7 70       0.0000000000000000e+00
7 71       0.0000000000000000e+00
7 72       0.0000000000000000e+00
8 8       0.0000000000000000e+00
8 4       0.0000000000000000e+00
8 5       0.0000000000000000e+00
8 6       0.0000000000000000e+00
8 7       0.0000000000000000e+00
8 9       0.0000000000000000e+00
8 10       0.0000000000000000e+00
8 11       0.0000000000000000e+00
8 12       0.0000000000000000e+00
8 19       0.0000000000000000e+00
8 20       0.0000000000000000e+00
8 21       0.0000000000000000e+00
8 22       0.0000000000000000e+00
8 23       0.0000000000000000e+00
8 24       0.0000000000000000e+00
8 25       0.0000000000000000e+00
8 26       0.0000000000000000e+00
8 27       0.0000000000000000e+00
8 49       0.0000000000000000e+00
8 50       0.0000000000000000e+00
8 51       0.0000000000000000e+00
8 52       0.0000000000000000e+00
8 53       0.0000000000000000e+00
8 54       0.0000000000000000e+00
8 55       0.0000000000000000e+00
8 56       0.0000000000000000e+00
8 57       0.0000000000000000e+00
8 64       0.0000000000000000e+00
8 65       0.0000000000000000e+00
8 66       0.0000000000000000e+00
8 67       0.0000000000000000e+00
8 68       0.0000000000000000e+00
8 69       0.0000000000000000e+00
8 70       0.0000000000000000e+00
8 71       0.0000000000000000e+00
8 72       0.0000000000000000e+00
9 9       0.0000000000000000e+00
9 4       0.0000000000000000e+00
9 5       0.0000000000000000e+00
9 6       0.0000000000000000e+00
9 7       0.0000000000000000e+00
9 8       0.0000000000000000e+00
9 10       0.0000000000000000e+00
9 11       0.0000000000000000e+00
9 12       0.0000000000000000e+00
9 19       0.0000000000000000e+00
9 20       0.0000000000000000e+00
9 21       0.0000000000000000e+00
9 22       0.0000000000000000e+00
9 23       0.0000000000000000e+00
9 24       0.0000000000000000e+00
9 25       0.0000000000000000e+00
9 26       0.0000000000000000e+00
9 27       0.0000000000000000e+00
9 49       0.0000000000000000e+00
9 50       0.0000000000000000e+00
9 51       0.0000000000000000e+00
9 52       0.0000000000000000e+00
9 53       0.0000000000000000e+00
9 54       0.0000000000000000e+00
9 55       0.0000000000000000e+00
9 56       0.0000000000000000e+00
9 57       0.0000000000000000e+00
9 64       0.0000000000000000e+00
9 65       0.0000000000000000e+00
9 66       0.0000000000000000e+00
9 67       0.0000000000000000e+00
9 68       0.0000000000000000e+00
9 69       0.0000000000000000e+00
9 70       0.0000000000000000e+00
9 71       0.0000000000000000e+00
9 72       0.0000000000000000e+00
10 10       0.0000000000000000e+00
10 7       0.0000000000000000e+00
10 8       0.0000000000000000e+00
10 9       0.0000000000000000e+00
10 11       0.0000000000000000e+00
10 12       0.0000000000000000e+00
10 13       0.0000000000000000e+00
10 14       0.0000000000000000e+00
10 15       0.0000000000000000e+00
10 22       0.0000000000000000e+00
10 23       0.0000000000000000e+00
10 24       0.0000000000000000e+00
10 25       0.0000000000000000e+00
10 26       0.0000000000000000e+00
10 27       0.0000000000000000e+00
10 28       0.0000000000000000e+00
10 29       0.0000000000000000e+00
10 30       0.0000000000000000e+00
10 52       0.0000000000000000e+00
10 53       0.0000000000000000e+00
10 54       0.0000000000000000e+00
10 55       0.0000000000000000e+00
10 56       0.0000000000000000e+00
10 57       0.0000000000000000e+00
10 58       0.0000000000000000e+00
10 59       0.0000000000000000e+00
10 60       0.0000000000000000e+00
10 67       0.0000000000000000e+00
10 68       0.0000000000000000e+00
10 69       0.0000000000000000e+00
10 70       0.0000000000000000e+00
10 71       0.0000000000000000e+00
10 72       0.0000000000000000e+00
10 73       0.0000000000000000e+00
10 74       0.0000000000000000e+00
10 75       0.0000000000000000e+00
11 11       0.0000000000000000e+00
11 7       0.0000000000000000e+00
11 8       0.0000000000000000e+00
11 9       0.0000000000000000e+00
11 10       0.0000000000000000e+00
11 12       0.0000000000000000e+00
11 13       0.0000000000000000e+00
11 14       0.0000000000000000e+00
11 15       0.0000000000000000e+00
11 22       0.0000000000000000e+00
11 23       0.0000000000000000e+00
11 24       0.0000000000000000e+00
11 25       0.0000000000000000e+00
11 26       0.0000000000000000e+00
11 27       0.0000000000000000e+00
11 28       0.0000000000000000e+00
11 29       0.0000000000000000e+00
11 30       0.0000000000000000e+00
11 52       0.0000000000000000e+00
11 53       0.0000000000000000e+00
11 54       0.0000000000000000e+00
11 55       0.0000000000000000e+00
11 56       0.0000000000000000e+00
11 57       0.0000000000000000e+00
11 58       0.0000000000000000e+00
11 59       0.0000000000000000e+00
11 60       0.0000000000000000e+00
11 67       0.0000000000000000e+00
11 68       0.0000000000000000e+00
11 69       0.0000000000000000e+00
11 70       0.0000000000000000e+00
11 71       0.0000000000000000e+00
11 72       0.0000000000000000e+00
11 73       0.0000000000000000e+00
11 74       0.0000000000000000e+00
11 75       0.0000000000000000e+00
12 12       0.0000000000000000e+00
12 7       0.0000000000000000e+00
12 8       0.0000000000000000e+00
12 9       0.0000000000000000e+00
12 10       0.0000000000000000e+00
12 11       0.0000000000000000e+00
12 13       0.0000000000000000e+00
12 14       0.0000000000000000e+00
12 15       0.0000000000000000e+00
12 22       0.0000000000000000e+00
12 23       0.0000000000000000e+00
12 24       0.0000000000000000e+00
12 25       0.0000000000000000e+00
12 26       0.0000000000000000e+00
12 27       0.0000000000000000e+00
12 28       0.0000000000000000e+00
12 29       0.0000000000000000e+00
12 30       0.0000000000000000e+00
12 52       0.0000000000000000e+00
12 53       0.0000000000000000e+00
12 54       0.0000000000000000e+00
12 55       0.0000000000000000e+00
12 56       0.0000000000000000e+00
12 57       0.0000000000000000e+00
12 58       0.0000000000000000e+00
12 59       0.0000000000000000e+00
12 60       0.0000000000000000e+00
12 67       0.0000000000000000e+00
12 68       0.0000000000000000e+00
12 69       0.0000000000000000e+00
12 70       0.0000000000000000e+00
12 71       0.0000000000000000e+00
12 72       0.0000000000000000e+00
12 73       0.0000000000000000e+00
12 74       0.0000000000000000e+00
12 75       0.0000000000000000e+00
13 13       0.0000000000000000e+00
13 10       0.0000000000000000e+00
13 11       0.0000000000000000e+00
13 12       0.0000000000000000e+00
13 14       0.0000000000000000e+00
13 15       0.0000000000000000e+00
13 25       0.0000000000000000e+00
13 26       0.0000000000000000e+00
13 27       0.0000000000000000e+00
13 28       0.0000000000000000e+00
13 29       0.0000000000000000e+00
13 30       0.0000000000000000e+00
13 55       0.0000000000000000e+00
13 56       0.0000000000000000e+00
13 57       0.0000000000000000e+00
13 58       0.0000000000000000e+00
13 59       0.0000000000000000e+00
13 60       0.0000000000000000e+00
13 70       0.0000000000000000e+00
13 71       0.0000000000000000e+00
13 72       0.0000000000000000e+00
13 73       0.0000000000000000e+00
13 74       0.0000000000000000e+00
13 75       0.0000000000000000e+00
13 376       0.0000000000000000e+00
13 377       0.0000000000000000e+00
13 378       0.0000000000000000e+00
13 379       0.0000000000000000e+00
13 380       0.0000000000000000e+00
13 381       0.0000000000000000e+00
13 385       0.0000000000000000e+00
13 386       0.0000000000000000e+00
13 387       0.0000000000000000e+00
13 388       0.0000000000000000e+00
13 389       0.0000000000000000e+00
13 390       0.0000000000000000e+00
14 14       0.0000000000000000e+00
14 10       0.0000000000000000e+00
14 11       0.0000000000000000e+00
14 12       0.0000000000000000e+00
14 13       0.0000000000000000e+00
14 15       0.0000000000000000e+00
14 25       0.0000000000000000e+00
14 26       0.0000000000000000e+00
14 27       0.0000000000000000e+00
14 28       0.0000000000000000e+00
14 29       0.0000000000000000e+00
14 30       0.0000000000000000e+00
14 55       0.0000000000000000e+00
14 56       0.0000000000000000e+00
14 57       0.0000000000000000e+00
14 58       0.0000000000000000e+00
14 59       0.0000000000000000e+00
14 60       0.0000000000000000e+00
14 70       0.0000000000000000e+00
14 71       0.0000000000000000e+00
14 72       0.0000000000000000e+00
14 73       0.0000000000000000e+00
14 74       0.0000000000000000e+00
14 75       0.0000000000000000e+00
14 376       0.0000000000000000e+00
14 377       0.0000000000000000e+00
14 378       0.0000000000000000e+00
14 379       0.0000000000000000e+00
14 380       0.0000000000000000e+00
14 381       0.0000000000000000e+00
14 385       0.0000000000000000e+00
14 386       0.0000000000000000e+00
14 387       0.0000000000000000e+00
14 388       0.0000000000000000e+00
14 389       0.0000000000000000e+00
14 390       0.0000000000000000e+00
15 15       0.0000000000000000e+00
15 10       0.0000000000000000e+00
15 11       0.0000000000000000e+00
15 12       0.0000000000000000e+00
15 13       0.0000000000000000e+00
15 14       0.0000000000000000e+00
15 25       0.0000000000000000e+00
15 26       0.0000000000000000e+00
15 27       0.0000000000000000e+00
15 28       0.0000000000000000e+00
15 29       0.0000000000000000e+00
15 30       0.0000000000000000e+00
15 55       0.0000000000000000e+00
15 56       0.0000000000000000e+00
15 57       0.0000000000000000e+00
15 58       0.0000000000000000e+00
15 59       0.0000000000000000e+00
15 60       0.0000000000000000e+00
15 70       0.0000000000000000e+00
15 71       0.0000000000000000e+00
15 72       0.0000000000000000e+00
15 73       0.0000000000000000e+00
15 74       0.0000000000000000e+00
15 75       0.0000000000000000e+00
15 376       0.0000000000000000e+00
15 377       0.0000000000000000e+00
15 378       0.0000000000000000e+00
15 379       0.0000000000000000e+00
15 380       0.0000000000000000e+00
15 381       0.0000000000000000e+00
15 385       0.0000000000000000e+00
15 386       0.0000000000000000e+00
15 387       0.0000000000000000e+00
15 388       0.0000000000000000e+00
15 389       0.0000000000000000e+00
15 390       0.0000000000000000e+00
16 16       0.0000000000000000e+00
16 1       0.0000000000000000e+00
16 2       0.0000000000000000e+00
16 3       0.0000000000000000e+00
16 4       0.0000000000000000e+00
16 5       0.0000000000000000e+00
16 6       0.0000000000000000e+00
16 17       0.0000000000000000e+00
16 18       0.0000000000000000e+00
16 19       0.0000000000000000e+00
16 20       0.0000000000000000e+00
16 21       0.0000000000000000e+00
16 31       0.0000000000000000e+00
16 32       0.0000000000000000e+00
16 33       0.0000000000000000e+00
16 34       0.0000000000000000e+00
16 35       0.0000000000000000e+00
16 36       0.0000000000000000e+00
16 46       0.0000000000000000e+00
16 47       0.0000000000000000e+00
16 48       0.0000000000000000e+00
16 49       0.0000000000000000e+00
16 50       0.0000000000000000e+00
16 51       0.0000000000000000e+00
16 61       0.0000000000000000e+00
16 62       0.0000000000000000e+00
16 63       0.0000000000000000e+00
16 64       0.0000000000000000e+00
16 65       0.0000000000000000e+00
16 66       0.0000000000000000e+00
16 76       0.0000000000000000e+00
16 77       0.0000000000000000e+00
16 78       0.0000000000000000e+00
16 79       0.0000000000000000e+00
16 80       0.0000000000000000e+00
16 81       0.0000000000000000e+00
17 17       0.0000000000000000e+00
17 1       0.0000000000000000e+00
17 2       0.0000000000000000e+00
17 3       0.0000000000000000e+00
17 4       0.0000000000000000e+00
17 5       0.0000000000000000e+00
17 6       0.0000000000000000e+00
17 16       0.0000000000000000e+00
17 18       0.0000000000000000e+00
17 19       0.0000000000000000e+00
17 20       0.0000000000000000e+00
17 21       0.0000000000000000e+00
17 31       0.0000000000000000e+00
17 32       0.0000000000000000e+00
17 33       0.0000000000000000e+00
17 34       0.0000000000000000e+00
17 35       0.0000000000000000e+00
17 36       0.0000000000000000e+00
17 46       0.0000000000000000e+00
17 47       0.0000000000000000e+00
17 48       0.0000000000000000e+00
17 49       0.0000000000000000e+00
17 50       0.0000000000000000e+00
17 51       0.0000000000000000e+00
17 61       0.0000000000000000e+00
17 62       0.0000000000000000e+00
17 63       0.0000000000000000e+00
17 64       0.0000000000000000e+00
17 65       0.0000000000000000e+00
17 66       0.0000000000000000e+00
17 76       0.0000000000000000e+00
17 77       0.0000000000000000e+00
17 78       0.0000000000000000e+00
17 79       0.0000000000000000e+00
17 80       0.0000000000000000e+00
17 81       0.0000000000000000e+00
18 18       0.0000000000000000e+00
18 1       0.0000000000000000e+00
18 2       0.0000000000000000e+00
18 3       0.0000000000000000e+00
18 4       0.0000000000000000e+00
18 5       0.0000000000000000e+00
18 6       0.0000000000000000e+00
18 16       0.0000000000000000e+00
18 17       0.0000000000000000e+00
18 19       0.0000000000000000e+00
18 20       0.0000000000000000e+00
18 21       0.0000000000000000e+00
18 31       0.0000000000000000e+00
18 32       0.0000000000000000e+00
18 33       0.0000000000000000e+00
18 34       0.0000000000000000e+00
18 35       0.0000000000000000e+00
18 36       0.0000000000000000e+00
18 46       0.0000000000000000e+00
18 47       0.0000000000000000e+00
18 48       0.0000000000000000e+00
18 49       0.0000000000000000e+00
18 50       0.0000000000000000e+00
18 51       0.0000000000000000e+00
18 61       0.0000000000000000e+00
18 62       0.0000000000000000e+00
18 63       0.0000000000000000e+00
18 64       0.0000000000000000e+00
18 65       0.0000000000000000e+00
18 66       0.0000000000000000e+00
18 76       0.0000000000000000e+00
18 77       0.0000000000000000e+00
18 78       0.0000000000000000e+00
18 79       0.0000000000000000e+00
18 80       0.0000000000000000e+00
18 81       0.0000000000000000e+00
19 19       0.0000000000000000e+00
19 1       0.0000000000000000e+00
19 2       0.0000000000000000e+00
19 3       0.0000000000000000e+00
19 4       0.0000000000000000e+00
19 5       0.0000000000000000e+00
19 6       0.0000000000000000e+00
19 7       0.0000000000000000e+00
19 8       0.0000000000000000e+00
19 9       0.0000000000000000e+00
19 16       0.0000000000000000e+00
19 17       0.0000000000000000e+00
19 18       0.0000000000000000e+00
19 20       0.0000000000000000e+00
19 21       0.0000000000000000e+00
19 22       0.0000000000000000e+00
19 23       0.0000000000000000e+00
19 24       0.0000000000000000e+00
19 31       0.0000000000000000e+00
19 32       0.0000000000000000e+00
19 33       0.0000000000000000e+00
19 34       0.0000000000000000e+00
19 35       0.0000000000000000e+00
19 36       0.0000000000000000e+00
19 37       0.0000000000000000e+00
19 38       0.0000000000000000e+00
19 39       0.0000000000000000e+00
19 46       0.0000000000000000e+00
19 47       0.0000000000000000e+00
19 48       0.0000000000000000e+00
19 49       0.0000000000000000e+00
19 50       0.0000000000000000e+00
19 51       0.0000000000000000e+00
19 52       0.0000000000000000e+00
19 53       0.0000000000000000e+00
19 54       0.0000000000000000e+00
19 61       0.0000000000000000e+00
19 62       0.0000000000000000e+00
19 63       0.0000000000000000e+00
19 64       0.0000000000000000e+00
19 65       0.0000000000000000e+00
19 66       0.0000000000000000e+00
19 67       0.0000000000000000e+00
19 68       0.0000000000000000e+00
19 69       0.0000000000000000e+00
19 76       0.0000000000000000e+00
19 77       0.0000000000000000e+00
19 78       0.0000000000000000e+00
19 79       0.0000000000000000e+00
19 80       0.0000000000000000e+00
19 81       0.0000000000000000e+00
19 82       0.0000000000000000e+00
19 83       0.0000000000000000e+00
19 84       0.0000000000000000e+00
20 20       0.0000000000000000e+00
20 1       0.0000000000000000e+00
20 2       0.0000000000000000e+00
20 3       0.0000000000000000e+00
20 4       0.0000000000000000e+00
20 5       0.0000000000000000e+00
20 6       0.0000000000000000e+00
20 7       0.0000000000000000e+00
20 8       0.0000000000000000e+00
20 9       0.0000000000000000e+00
20 16       0.0000000000000000e+00
20 17       0.0000000000000000e+00
20 18       0.0000000000000000e+00
20 19       0.0000000000000000e+00
20 21       0.0000000000000000e+00
20 22       0.0000000000000000e+00
20 23       0.0000000000000000e+00
20 24       0.0000000000000000e+00
20 31       0.0000000000000000e+00
20 32       0.0000000000000000e+00
20 33       0.0000000000000000e+00
20 34       0.0000000000000000e+00
20 35       0.0000000000000000e+00
20 36       0.0000000000000000e+00
20 37       0.0000000000000000e+00
20 38       0.0000000000000000e+00
20 39       0.0000000000000000e+00
20 46       0.0000000000000000e+00
20 47       0.0000000000000000e+00
20 48       0.0000000000000000e+00
20 49       0.0000000000000000e+00
20 50       0.0000000000000000e+00
20 51       0.0000000000000000e+00
20 52       0.0000000000000000e+00
20 53       0.0000000000000000e+00
20 54       0.0000000000000000e+00
20 61       0.0000000000000000e+00
20 62       0.0000000000000000e+00
20 63       0.0000000000000000e+00
20 64       0.0000000000000000e+00
20 65       0.0000000000000000e+00
20 66       0.0000000000000000e+00
20 67       0.0000000000000000e+00
20 68       0.0000000000000000e+00
20 69       0.0000000000000000e+00
20 76       0.0000000000000000e+00
20 77       0.0000000000000000e+00
20 78       0.0000000000000000e+00
20 79       0.0000000000000000e+00
20 80       0.0000000000000000e+00
20 81       0.0000000000000000e+00
20 82       0.0000000000000000e+00
20 83       0.0000000000000000e+00
20 84       0.0000000000000000e+00
21 21       0.0000000000000000e+00
21 1       0.0000000000000000e+00
21 2       0.0000000000000000e+00
21 3       0.0000000000000000e+00
21 4       0.0000000000000000e+00
21 5       0.0000000000000000e+00
21 6       0.0000000000000000e+00
21 7       0.0000000000000000e+00
21 8       0.0000000000000000e+00
21 9       0.0000000000000000e+00
21 16       0.0000000000000000e+00
21 17       0.0000000000000000e+00
21 18       0.0000000000000000e+00
21 19       0.0000000000000000e+00
21 20       0.0000000000000000e+00
21 22       0.0000000000000000e+00
21 23       0.0000000000000000e+00
21 24       0.0000000000000000e+00
21 31       0.0000000000000000e+00
21 32       0.0000000000000000e+00
21 33       0.0000000000000000e+00
21 34       0.0000000000000000e+00
21 35       0.0000000000000000e+00
21 36       0.0000000000000000e+00
21 37       0.0000000000000000e+00
21 38       0.0000000000000000e+00
21 39       0.0000000000000000e+00
21 46       0.0000000000000000e+00
21 47       0.0000000000000000e+00
21 48       0.0000000000000000e+00
21 49       0.0000000000000000e+00
21 50       0.0000000000000000e+00
21 51       0.0000000000000000e+00
21 52       0.0000000000000000e+00
21 53       0.0000000000000000e+00
21 54       0.0000000000000000e+00
21 61       0.0000000000000000e+00
21 62       0.0000000000000000e+00
21 63       0.0000000000000000e+00
21 64       0.0000000000000000e+00
21 65       0.0000000000000000e+00
21 66       0.0000000000000000e+00
21 67       0.0000000000000000e+00
21 68       0.0000000000000000e+00
21 69       0.0000000000000000e+00
21 76       0.0000000000000000e+00
21 77       0.0000000000000000e+00
21 78       0.0000000000000000e+00
21 79       0.0000000000000000e+00
21 80       0.0000000000000000e+00
21 81       0.0000000000000000e+00
21 82       0.0000000000000000e+00
21 83       0.0000000000000000e+00
21 84       0.0000000000000000e+00
22 22       0.0000000000000000e+00
22 4       0.0000000000000000e+00
22 5       0.0000000000000000e+00
22 6       0.0000000000000000e+00
22 7       0.0000000000000000e+00
22 8       0.0000000000000000e+00
22 9       0.0000000000000000e+00
22 10       0.0000000000000000e+00
22 11       0.0000000000000000e+00
22 12       0.0000000000000000e+00
22 19       0.0000000000000000e+00
22 20       0.0000000000000000e+00
22 21       0.0000000000000000e+00
22 23       0.0000000000000000e+00
22 24       0.0000000000000000e+00
22 25       0.0000000000000000e+00
22 26       0.0000000000000000e+00
22 27       0.0000000000000000e+00
22 34       0.0000000000000000e+00
22 35       0.0000000000000000e+00
22 36       0.0000000000000000e+00
22 37       0.0000000000000000e+00
22 38       0.0000000000000000e+00
22 39       0.0000000000000000e+00
22 40       0.0000000000000000e+00
22 41       0.0000000000000000e+00
22 42       0.0000000000000000e+00
22 49       0.0000000000000000e+00
22 50       0.0000000000000000e+00
22 51       0.0000000000000000e+00
22 52       0.0000000000000000e+00
22 53       0.0000000000000000e+00
22 54       0.0000000000000000e+00
22 55       0.0000000000000000e+00
22 56       0.0000000000000000e+00
22 57       0.0000000000000000e+00
22 64       0.0000000000000000e+00
22 65       0.0000000000000000e+00
22 66       0.0000000000000000e+00
22 67       0.0000000000000000e+00
22 68       0.0000000000000000e+00
22 69       0.0000000000000000e+00
22 70       0.0000000000000000e+00
22 71       0.0000000000000000e+00
22 72       0.0000000000000000e+00
22 79       0.0000000000000000e+00
22 80       0.0000000000000000e+00
22 81       0.0000000000000000e+00
22 82       0.0000000000000000e+00
22 83       0.0000000000000000e+00
22 84       0.0000000000000000e+00
22 85       0.0000000000000000e+00
22 86       0.0000000000000000e+00
22 87       0.0000000000000000e+00
23 23       0.0000000000000000e+00
23 4       0.0000000000000000e+00
23 5       0.0000000000000000e+00
23 6       0.0000000000000000e+00
23 7       0.0000000000000000e+00
23 8       0.0000000000000000e+00
23 9       0.0000000000000000e+00
23 10       0.0000000000000000e+00
23 11       0.0000000000000000e+00
23 12       0.0000000000000000e+00
23 19       0.0000000000000000e+00
23 20       0.0000000000000000e+00
23 21       0.0000000000000000e+00
23 22       0.0000000000000000e+00
23 24       0.0000000000000000e+00
23 25       0.0000000000000000e+00
23 26       0.0000000000000000e+00
23 27       0.0000000000000000e+00
23 34       0.0000000000000000e+00
23 35       0.0000000000000000e+00
23 36       0.0000000000000000e+00
23 37       0.0000000000000000e+00
23 38       0.0000000000000000e+00
23 39       0.0000000000000000e+00
23 40       0.0000000000000000e+00
23 41       0.0000000000000000e+00
23 42       0.0000000000000000e+00
23 49       0.0000000000000000e+00
23 50       0.0000000000000000e+00
23 51       0.0000000000000000e+00
23 52       0.0000000000000000e+00
23 53       0.0000000000000000e+00
23 54       0.0000000000000000e+00
23 55       0.0000000000000000e+00
23 56       0.0000000000000000e+00
23 57       0.0000000000000000e+00
23 64       0.0000000000000000e+00
23 65       0.0000000000000000e+00
23 66       0.0000000000000000e+00
23 67       0.0000000000000000e+00
23 68       0.0000000000000000e+00
23 69       0.0000000000000000e+00
23 70       0.0000000000000000e+00
23 71       0.0000000000000000e+00
23 72       0.0000000000000000e+00
23 79       0.0000000000000000e+00
23 80       0.0000000000000000e+00
23 81       0.0000000000000000e+00
23 82       0.0000000000000000e+00
23 83       0.0000000000000000e+00
23 84       0.0000000000000000e+00
23 85       0.0000000000000000e+00
23 86       0.0000000000000000e+00
23 87       0.0000000000000000e+00
24 24       0.0000000000000000e+00
24 4       0.0000000000000000e+00
24 5       0.0000000000000000e+00
24 6       0.0000000000000000e+00
24 7       0.0000000000000000e+00
24 8       0.0000000000000000e+00
24 9       0.0000000000000000e+00
24 10       0.0000000000000000e+00
24 11       0.0000000000000000e+00
24 12       0.0000000000000000e+00
24 19       0.0000000000000000e+00
24 20       0.0000000000000000e+00
24 21       0.0000000000000000e+00
24 22       0.0000000000000000e+00
24 23       0.0000000000000000e+00
24 25       0.0000000000000000e+00
24 26       0.0000000000000000e+00
24 27       0.0000000000000000e+00
24 34       0.0000000000000000e+00
24 35       0.0000000000000000e+00
24 36       0.0000000000000000e+00
24 37       0.0000000000000000e+00
24 38       0.0000000000000000e+00
24 39       0.0000000000000000e+00
24 40       0.0000000000000000e+00
24 41       0.0000000000000000e+00
24 42       0.0000000000000000e+00
24 49       0.0000000000000000e+00
24 50       0.0000000000000000e+00
24 51       0.0000000000000000e+00
24 52       0.0000000000000000e+00
24 53       0.0000000000000000e+00
24 54       0.0000000000000000e+00
24 55       0.0000000000000000e+00
24 56       0.0000000000000000e+00
24 57       0.0000000000000000e+00
24 64       0.0000000000000000e+00
24 65       0.0000000000000000e+00
24 66       0.0000000000000000e+00
24 67       0.0000000000000000e+00
24 68       0.0000000000000000e+00
24 69       0.0000000000000000e+00
24 70       0.0000000000000000e+00
24 71       0.0000000000000000e+00
24 72       0.0000000000000000e+00
24 79       0.0000000000000000e+00
24 80       0.0000000000000000e+00
24 81       0.0000000000000000e+00
24 82       0.0000000000000000e+00
24 83       0.0000000000000000e+00
24 84       0.0000000000000000e+00
24 85       0.0000000000000000e+00
24 86       0.0000000000000000e+00
24 87       0.0000000000000000e+00
25 25       0.0000000000000000e+00
25 7       0.0000000000000000e+00
25 8       0.0000000000000000e+00
25 9       0.0000000000000000e+00
25 10       0.0000000000000000e+00
25 11       0.0000000000000000e+00
25 12       0.0000000000000000e+00
25 13       0.0000000000000000e+00
25 14       0.0000000000000000e+00
25 15       0.0000000000000000e+00
25 22       0.0000000000000000e+00
25 23       0.0000000000000000e+00
25 24       0.0000000000000000e+00
25 26       0.0000000000000000e+00
25 27       0.0000000000000000e+00
25 28       0.0000000000000000e+00
25 29       0.0000000000000000e+00
25 30       0.0000000000000000e+00
25 37       0.0000000000000000e+00
25 38       0.0000000000000000e+00
25 39       0.0000000000000000e+00
25 40       0.0000000000000000e+00
25 41       0.0000000000000000e+00
25 42       0.0000000000000000e+00
25 43       0.0000000000000000e+00
25 44       0.0000000000000000e+00
25 45       0.0000000000000000e+00
25 52       0.0000000000000000e+00
25 53       0.0000000000000000e+00
25 54       0.0000000000000000e+00
25 55       0.0000000000000000e+00
25 56       0.0000000000000000e+00
25 57       0.0000000000000000e+00
25 58       0.0000000000000000e+00
25 59       0.0000000000000000e+00
25 60       0.0000000000000000e+00
25 67       0.0000000000000000e+00
25 68       0.0000000000000000e+00
25 69       0.0000000000000000e+00
25 70       0.0000000000000000e+00
25 71       0.0000000000000000e+00
25 72       0.0000000000000000e+00
25 73       0.0000000000000000e+00
25 74       0.0000000000000000e+00
25 75       0.0000000000000000e+00
25 82       0.0000000000000000e+00
25 83       0.0000000000000000e+00
25 84       0.0000000000000000e+00
25 85       0.0000000000000000e+00
25 86       0.0000000000000000e+00
25 87       0.0000000000000000e+00
25 88       0.0000000000000000e+00
25 89       0.0000000000000000e+00
25 90       0.0000000000000000e+00
26 26       0.0000000000000000e+00
26 7       0.0000000000000000e+00
26 8       0.0000000000000000e+00
26 9       0.0000000000000000e+00
26 10       0.0000000000000000e+00
26 11       0.0000000000000000e+00
26 12       0.0000000000000000e+00
26 13       0.0000000000000000e+00
26 14       0.0000000000000000e+00
26 15       0.0000000000000000e+00
26 22       0.0000000000000000e+00
26 23       0.0000000000000000e+00
26 24       0.0000000000000000e+00
26 25       0.0000000000000000e+00
26 27       0.0000000000000000e+00
26 28       0.0000000000000000e+00
26 29       0.0000000000000000e+00
26 30       0.0000000000000000e+00
26 37       0.0000000000000000e+00
26 38       0.0000000000000000e+00
26 39       0.0000000000000000e+00
26 40       0.0000000000000000e+00
26 41       0.0000000000000000e+00
26 42       0.0000000000000000e+00
26 43       0.0000000000000000e+00
26 44       0.0000000000000000e+00
26 45       0.0000000000000000e+00
26 52       0.0000000000000000e+00
26 53       0.0000000000000000e+00
26 54       0.0000000000000000e+00
26 55       0.0000000000000000e+00
26 56       0.0000000000000000e+00
26 57       0.0000000000000000e+00
26 58       0.0000000000000000e+00
26 59       0.0000000000000000e+00
26 60       0.0000000000000000e+00
26 67       0.0000000000000000e+00
26 68       0.0000000000000000e+00
26 69       0.0000000000000000e+00
26 70       0.0000000000000000e+00
26 71       0.0000000000000000e+00
26 72       0.0000000000000000e+00
26 73       0.0000000000000000e+00
26 74       0.0000000000000000e+00
26 75       0.0000000000000000e+00
26 82       0.0000000000000000e+00
26 83       0.0000000000000000e+00
26 84       0.0000000000000000e+00
26 85       0.0000000000000000e+00
26 86       0.0000000000000000e+00
26 87       0.0000000000000000e+00
26 88       0.0000000000000000e+00
26 89       0.0000000000000000e+00
26 90       0.0000000000000000e+00
27 27       0.0000000000000000e+00
27 7       0.0000000000000000e+00
27 8       0.0000000000000000e+00
27 9       0.0000000000000000e+00
27 10       0.0000000000000000e+00
27 11       0.0000000000000000e+00
27 12       0.0000000000000000e+00
27 13       0.0000000000000000e+00
27 14       0.0000000000000000e+00
27 15       0.0000000000000000e+00
27 22       0.0000000000000000e+00
27 23       0.0000000000000000e+00
27 24       0.0000000000000000e+00
27 25       0.0000000000000000e+00
27 26       0.0000000000000000e+00
27 28       0.0000000000000000e+00
27 29       0.0000000000000000e+00
27 30       0.0000000000000000e+00
27 37       0.0000000000000000e+00
27 38       0.0000000000000000e+00
27 39       0.0000000000000000e+00
27 40       0.0000000000000000e+00
27 41       0.0000000000000000e+00
27 42       0.0000000000000000e+00
27 43       0.0000000000000000e+00
27 44       0.0000000000000000e+00
27 45       0.0000000000000000e+00
27 52       0.0000000000000000e+00
27 53       0.0000000000000000e+00
27 54       0.0000000000000000e+00
27 55       0.0000000000000000e+00
27 56       0.0000000000000000e+00
27 57       0.0000000000000000e+00
27 58       0.0000000000000000e+00
27 59       0.0000000000000000e+00
27 60       0.0000000000000000e+00
27 67       0.0000000000000000e+00
27 68       0.0000000000000000e+00
27 69       0.0000000000000000e+00
27 70       0.0000000000000000e+00
27 71       0.0000000000000000e+00
27 72       0.0000000000000000e+00
27 73       0.0000000000000000e+00
27 74       0.0000000000000000e+00
27 75       0.0000000000000000e+00
27 82       0.0000000000000000e+00
27 83       0.0000000000000000e+00
27 84       0.0000000000000000e+00
27 85       0.0000000000000000e+00
27 86       0.0000000000000000e+00
27 87       0.0000000000000000e+00
27 88       0.0000000000000000e+00
27 89       0.0000000000000000e+00
27 90       0.0000000000000000e+00
28 28       0.0000000000000000e+00
28 10       0.0000000000000000e+00
28 11       0.0000000000000000e+00
28 12       0.0000000000000000e+00
28 13       0.0000000000000000e+00
28 14       0.0000000000000000e+00
28 15       0.0000000000000000e+00
28 25       0.0000000000000000e+00
28 26       0.0000000000000000e+00
28 27       0.0000000000000000e+00
28 29       0.0000000000000000e+00
28 30       0.0000000000000000e+00
28 40       0.0000000000000000e+00
28 41       0.0000000000000000e+00
28 42       0.0000000000000000e+00
28 43       0.0000000000000000e+00
28 44       0.0000000000000000e+00
28 45       0.0000000000000000e+00
28 55       0.0000000000000000e+00
28 56       0.0000000000000000e+00
28 57       0.0000000000000000e+00
28 58       0.0000000000000000e+00
28 59       0.0000000000000000e+00
28 60       0.0000000000000000e+00
28 70       0.0000000000000000e+00
28 71       0.0000000000000000e+00
28 72       0.0000000000000000e+00
28 73       0.0000000000000000e+00
28 74       0.0000000000000000e+00
28 75       0.0000000000000000e+00
28 85       0.0000000000000000e+00
28 86       0.0000000000000000e+00
28 87       0.0000000000000000e+00
28 88       0.0000000000000000e+00
28 89       0.0000000000000000e+00
28 90       0.0000000000000000e+00
28 376       0.0000000000000000e+00
28 377       0.0000000000000000e+00
28 378       0.0000000000000000e+00
28 379       0.0000000000000000e+00
28 380       0.0000000000000000e+00
28 381       0.0000000000000000e+00
28 382       0.0000000000000000e+00
28 383       0.0000000000000000e+00
28 384       0.0000000000000000e+00
28 385       0.0000000000000000e+00
28 386       0.0000000000000000e+00
28 387       0.0000000000000000e+00
28 388       0.0000000000000000e+00
28 389       0.0000000000000000e+00
28 390       0.0000000000000000e+00
28 391       0.0000000000000000e+00
28 392       0.0000000000000000e+00
28 393       0.0000000000000000e+00
29 29       0.0000000000000000e+00
29 10       0.0000000000000000e+00
29 11       0.0000000000000000e+00
29 12       0.0000000000000000e+00
29 13       0.0000000000000000e+00
29 14       0.0000000000000000e+00
29 15       0.0000000000000000e+00
29 25       0.0000000000000000e+00
29 26       0.0000000000000000e+00
29 27       0.0000000000000000e+00
29 28       0.0000000000000000e+00
29 30       0.0000000000000000e+00
29 40       0.0000000000000000e+00
29 41       0.0000000000000000e+00
29 42       0.0000000000000000e+00
29 43       0.0000000000000000e+00
29 44       0.0000000000000000e+00
29 45       0.0000000000000000e+00
29 55       0.0000000000000000e+00
29 56       0.0000000000000000e+00
29 57       0.0000000000000000e+00
29 58       0.0000000000000000e+00
29 59       0.0000000000000000e+00
29 60       0.0000000000000000e+00
29 70       0.0000000000000000e+00
29 71       0.0000000000000000e+00
29 72       0.0000000000000000e+00
29 73       0.0000000000000000e+00
29 74       0.0000000000000000e+00
29 75       0.0000000000000000e+00
29 85       0.0000000000000000e+00
29 86       0.0000000000000000e+00
29 87       0.0000000000000000e+00
29 88       0.0000000000000000e+00
29 89       0.0000000000000000e+00
29 90       0.0000000000000000e+00
29 376       0.0000000000000000e+00
29 377       0.0000000000000000e+00
29 378       0.0000000000000000e+00
29 379       0.0000000000000000e+00
29 380       0.0000000000000000e+00
29 381       0.0000000000000000e+00
29 382       0.0000000000000000e+00
29 383       0.0000000000000000e+00
29 384       0.0000000000000000e+00
29 385       0.0000000000000000e+00
29 386       0.0000000000000000e+00
29 387       0.0000000000000000e+00
29 388       0.0000000000000000e+00
29 389       0.0000000000000000e+00
29 390       0.0000000000000000e+00
29 391       0.0000000000000000e+00
29 392       0.0000000000000000e+00
29 393       0.0000000000000000e+00
30 30       0.0000000000000000e+00
30 10       0.0000000000000000e+00
30 11       0.0000000000000000e+00
30 12       0.0000000000000000e+00
30 13       0.0000000000000000e+00
30 14       0.0000000000000000e+00
30 15       0.0000000000000000e+00
30 25       0.0000000000000000e+00
30 26       0.0000000000000000e+00
30 27       0.0000000000000000e+00
30 28       0.0000000000000000e+00
30 29       0.0000000000000000e+00
30 40       0.0000000000000000e+00
30 41       0.0000000000000000e+00
30 42       0.0000000000000000e+00
30 43       0.0000000000000000e+00
30 44       0.0000000000000000e+00
30 45       0.0000000000000000e+00
30 55       0.0000000000000000e+00
30 56       0.0000000000000000e+00
30 57       0.0000000000000000e+00
30 58       0.0000000000000000e+00
30 59       0.0000000000000000e+00
30 60       0.0000000000000000e+00
30 70       0.0000000000000000e+00
30 71       0.0000000000000000e+00
30 72       0.0000000000000000e+00
30 73       0.0000000000000000e+00
30 74       0.0000000000000000e+00
30 75       0.0000000000000000e+00
30 85       0.0000000000000000e+00
30 86       0.0000000000000000e+00
30 87       0.0000000000000000e+00
30 88       0.0000000000000000e+00
30 89       0.0000000000000000e+00
30 90       0.0000000000000000e+00
30 376       0.0000000000000000e+00
30 377       0.0000000000000000e+00
30 378       0.0000000000000000e+00
30 379       0.0000000000000000e+00
30 380       0.0000000000000000e+00
30 381       0.0000000000000000e+00
30 382       0.0000000000000000e+00
30 383       0.0000000000000000e+00
30 384       0.0000000000000000e+00
30 385       0.0000000000000000e+00
30 386       0.0000000000000000e+00
30 387       0.0000000000000000e+00
30 388       0.0000000000000000e+00
30 389       0.0000000000000000e+00
30 390       0.0000000000000000e+00
30 391       0.0000000000000000e+00
30 392       0.0000000000000000e+00
30 393       0.0000000000000000e+00
31 31       0.0000000000000000e+00
31 16       0.0000000000000000e+00
31 17       0.0000000000000000e+00
31 18       0.0000000000000000e+00
31 19       0.0000000000000000e+00
31 20       0.0000000000000000e+00
31 21       0.0000000000000000e+00
31 32       0.0000000000000000e+00
31 33       0.0000000000000000e+00
31 34       0.0000000000000000e+00
31 35       0.0000000000000000e+00
31 36       0.0000000000000000e+00
31 61       0.0000000000000000e+00
31 62       0.0000000000000000e+00
31 63       0.0000000000000000e+00
31 64       0.0000000000000000e+00
31 65       0.0000000000000000e+00
31 66       0.0000000000000000e+00
31 76       0.0000000000000000e+00
31 77       0.0000000000000000e+00
31 78       0.0000000000000000e+00
31 79       0.0000000000000000e+00
31 80       0.0000000000000000e+00
31 81       0.0000000000000000e+00
32 32       0.0000000000000000e+00
32 16       0.0000000000000000e+00
32 17       0.0000000000000000e+00
32 18       0.0000000000000000e+00
32 19       0.0000000000000000e+00
32 20       0.0000000000000000e+00
32 21       0.0000000000000000e+00
32 31       0.0000000000000000e+00
32 33       0.0000000000000000e+00
32 34       0.0000000000000000e+00
32 35       0.0000000000000000e+00
32 36       0.0000000000000000e+00
32 61       0.0000000000000000e+00
32 62       0.0000000000000000e+00
32 63       0.0000000000000000e+00
32 64       0.0000000000000000e+00
32 65       0.0000000000000000e+00
32 66       0.0000000000000000e+00
32 76       0.0000000000000000e+00
32 77       0.0000000000000000e+00
32 78       0.0000000000000000e+00
32 79       0.0000000000000000e+00
32 80       0.0000000000000000e+00
32 81       0.0000000000000000e+00
33 33       0.0000000000000000e+00
33 16       0.0000000000000000e+00
33 17       0.0000000000000000e+00
33 18       0.0000000000000000e+00
33 19       0.0000000000000000e+00
33 20       0.0000000000000000e+00
33 21       0.0000000000000000e+00
33 31       0.0000000000000000e+00
33 32       0.0000000000000000e+00
33 34       0.0000000000000000e+00
33 35       0.0000000000000000e+00
33 36       0.0000000000000000e+00
33 61       0.0000000000000000e+00
33 62       0.0000000000000000e+00
33 63       0.0000000000000000e+00
33 64       0.0000000000000000e+00
33 65       0.0000000000000000e+00
33 66       0.0000000000000000e+00
33 76       0.0000000000000000e+00
33 77       0.0000000000000000e+00
33 78       0.0000000000000000e+00
33 79       0.0000000000000000e+00
33 80       0.0000000000000000e+00
33 81       0.0000000000000000e+00
34 34       0.0000000000000000e+00
34 16       0.0000000000000000e+00
34 17       0.0000000000000000e+00
34 18       0.0000000000000000e+00
34 19       0.0000000000000000e+00
34 20       0.0000000000000000e+00
34 21       0.0000000000000000e+00
34 22       0.0000000000000000e+00
34 23       0.0000000000000000e+00
34 24       0.0000000000000000e+00
34 31       0.0000000000000000e+00
34 32       0.0000000000000000e+00
34 33       0.0000000000000000e+00
34 35       0.0000000000000000e+00
34 36       0.0000000000000000e+00
34 37       0.0000000000000000e+00
34 38       0.0000000000000000e+00
34 39       0.0000000000000000e+00
34 61       0.0000000000000000e+00
34 62       0.0000000000000000e+00
34 63       0.0000000000000000e+00
34 64       0.0000000000000000e+00
34 65       0.0000000000000000e+00
34 66       0.0000000000000000e+00
34 67       0.0000000000000000e+00
34 68       0.0000000000000000e+00
34 69       0.0000000000000000e+00
34 76       0.0000000000000000e+00
34 77       0.0000000000000000e+00
34 78       0.0000000000000000e+00
34 79       0.0000000000000000e+00
34 80       0.0000000000000000e+00
34 81       0.0000000000000000e+00
34 82       0.0000000000000000e+00
34 83       0.0000000000000000e+00
34 84       0.0000000000000000e+00
35 35       0.0000000000000000e+00
35 16       0.0000000000000000e+00
35 17       0.0000000000000000e+00
35 18       0.0000000000000000e+00
35 19       0.0000000000000000e+00
35 20       0.0000000000000000e+00
35 21       0.0000000000000000e+00
35 22       0.0000000000000000e+00
35 23       0.0000000000000000e+00
35 24       0.0000000000000000e+00
35 31       0.0000000000000000e+00
35 32       0.0000000000000000e+00
35 33       0.0000000000000000e+00
35 34       0.0000000000000000e+00
35 36       0.0000000000000000e+00
35 37       0.0000000000000000e+00
35 38       0.0000000000000000e+00
35 39       0.0000000000000000e+00
35 61       0.0000000000000000e+00
35 62       0.0000000000000000e+00
35 63       0.0000000000000000e+00
35 64       0.0000000000000000e+00
35 65       0.0000000000000000e+00
35 66       0.0000000000000000e+00
35 67       0.0000000000000000e+00
35 68       0.0000000000000000e+00
35 69       0.0000000000000000e+00
35 76       0.0000000000000000e+00
35 77       0.0000000000000000e+00
35 78       0.0000000000000000e+00
35 79       0.0000000000000000e+00
35 80       0.0000000000000000e+00
35 81       0.0000000000000000e+00
35 82       0.0000000000000000e+00
35 83       0.0000000000000000e+00
35 84       0.0000000000000000e+00
36 36       0.0000000000000000e+00
36 16       0.0000000000000000e+00
36 17       0.0000000000000000e+00
36 18       0.0000000000000000e+00
36 19       0.0000000000000000e+00
36 20       0.0000000000000000e+00
36 21       0.0000000000000000e+00
36 22       0.0000000000000000e+00
36 23       0.0000000000000000e+00
36 24       0.0000000000000000e+00
36 31       0.0000000000000000e+00
36 32       0.0000000000000000e+00
36 33       0.0000000000000000e+00
36 34       0.0000000000000000e+00
36 35       0.0000000000000000e+00
36 37       0.0000000000000000e+00
36 38       0.0000000000000000e+00
36 39       0.0000000000000000e+00
36 61       0.0000000000000000e+00
36 62       0.0000000000000000e+00
36 63       0.0000000000000000e+00
36 64       0.0000000000000000e+00
36 65       0.0000000000000000e+00
36 66       0.0000000000000000e+00
36 67       0.0000000000000000e+00
36 68       0.0000000000000000e+00
36 69       0.0000000000000000e+00
36 76       0.0000000000000000e+00
36 77       0.0000000000000000e+00
36 78       0.0000000000000000e+00
36 79       0.0000000000000000e+00
36 80       0.0000000000000000e+00
36 81       0.0000000000000000e+00
36 82       0.0000000000000000e+00
36 83       0.0000000000000000e+00
36 84       0.0000000000000000e+00
37 37       0.0000000000000000e+00
37 19       0.0000000000000000e+00
37 20       0.0000000000000000e+00
37 21       0.0000000000000000e+00
37 22       0.0000000000000000e+00
37 23       0.0000000000000000e+00
37 24       0.0000000000000000e+00
37 25       0.0000000000000000e+00
37 26       0.0000000000000000e+00
37 27       0.0000000000000000e+00
37 34       0.0000000000000000e+00
37 35       0.0000000000000000e+00
37 36       0.0000000000000000e+00
37 38       0.0000000000000000e+00
37 39       0.0000000000000000e+00
37 40       0.0000000000000000e+00
37 41       0.0000000000000000e+00
37 42       0.0000000000000000e+00
37 64       0.0000000000000000e+00
37 65       0.0000000000000000e+00
37 66       0.0000000000000000e+00
37 67       0.0000000000000000e+00
37 68       0.0000000000000000e+00
37 69       0.0000000000000000e+00
37 70       0.0000000000000000e+00
37 71       0.0000000000000000e+00
37 72       0.0000000000000000e+00
37 79       0.0000000000000000e+00
37 80       0.0000000000000000e+00
37 81       0.0000000000000000e+00
37 82       0.0000000000000000e+00
37 83       0.0000000000000000e+00
37 84       0.0000000000000000e+00
37 85       0.0000000000000000e+00
37 86       0.0000000000000000e+00
37 87       0.0000000000000000e+00
38 38       0.0000000000000000e+00
38 19       0.0000000000000000e+00
38 20       0.0000000000000000e+00
38 21       0.0000000000000000e+00
38 22       0.0000000000000000e+00
38 23       0.0000000000000000e+00
38 24       0.0000000000000000e+00
38 25       0.0000000000000000e+00
38 26       0.0000000000000000e+00
38 27       0.0000000000000000e+00
38 34       0.0000000000000000e+00
38 35       0.0000000000000000e+00
38 36       0.0000000000000000e+00
38 37       0.0000000000000000e+00
38 39       0.0000000000000000e+00
38 40       0.0000000000000000e+00
38 41       0.0000000000000000e+00
38 42       0.0000000000000000e+00
38 64       0.0000000000000000e+00
38 65       0.0000000000000000e+00
38 66       0.0000000000000000e+00
38 67       0.0000000000000000e+00
38 68       0.0000000000000000e+00
38 69       0.0000000000000000e+00
38 70       0.0000000000000000e+00
38 71       0.0000000000000000e+00
38 72       0.0000000000000000e+00
38 79       0.0000000000000000e+00
38 80       0.0000000000000000e+00
38 81       0.0000000000000000e+00
38 82       0.0000000000000000e+00
38 83       0.0000000000000000e+00
38 84       0.0000000000000000e+00
38 85       0.0000000000000000e+00
38 86       0.0000000000000000e+00
38 87       0.0000000000000000e+00
39 39       0.0000000000000000e+00
39 19       0.0000000000000000e+00
39 20       0.0000000000000000e+00
39 21       0.0000000000000000e+00
39 22       0.0000000000000000e+00
39 23       0.0000000000000000e+00
39 24       0.0000000000000000e+00
39 25       0.0000000000000000e+00
39 26       0.0000000000000000e+00
39 27       0.0000000000000000e+00
39 34       0.0000000000000000e+00
39 35       0.0000000000000000e+00
39 36       0.0000000000000000e+00
39 37       0.0000000000000000e+00
39 38       0.0000000000000000e+00
39 40       0.0000000000000000e+00
39 41       0.0000000000000000e+00
39 42       0.0000000000000000e+00
39 64       0.0000000000000000e+00
39 65       0.0000000000000000e+00
39 66       0.0000000000000000e+00
39 67       0.0000000000000000e+00
39 68       0.0000000000000000e+00
39 69       0.0000000000000000e+00
39 70       0.0000000000000000e+00
39 71       0.0000000000000000e+00
39 72       0.0000000000000000e+00
39 79       0.0000000000000000e+00
39 80       0.0000000000000000e+00
39 81       0.0000000000000000e+00
39 82       0.0000000000000000e+00
39 83       0.0000000000000000e+00
39 84       0.0000000000000000e+00
39 85       0.0000000000000000e+00
39 86       0.0000000000000000e+00
39 87       0.0000000000000000e+00
40 40       0.0000000000000000e+00
40 22       0.0000000000000000e+00
40 23       0.0000000000000000e+00
40 24       0.0000000000000000e+00
40 25       0.0000000000000000e+00
40 26       0.0000000000000000e+00
40 27       0.0000000000000000e+00
40 28       0.0000000000000000e+00
40 29       0.0000000000000000e+00
40 30       0.0000000000000000e+00
40 37       0.0000000000000000e+00
40 38       0.0000000000000000e+00
40 39       0.0000000000000000e+00
40 41       0.0000000000000000e+00
40 42       0.0000000000000000e+00
40 43       0.0000000000000000e+00
40 44       0.0000000000000000e+00
40 45       0.0000000000000000e+00
40 67       0.0000000000000000e+00
40 68       0.0000000000000000e+00
40 69       0.0000000000000000e+00
40 70       0.0000000000000000e+00
40 71       0.0000000000000000e+00
40 72       0.0000000000000000e+00
40 73       0.0000000000000000e+00
40 74       0.0000000000000000e+00
40 75       0.0000000000000000e+00
40 82       0.0000000000000000e+00
40 83       0.0000000000000000e+00
40 84       0.0000000000000000e+00
40 85       0.0000000000000000e+00
40 86       0.0000000000000000e+00
40 87       0.0000000000000000e+00
40 88       0.0000000000000000e+00
40 89       0.0000000000000000e+00
40 90       0.0000000000000000e+00
41 41       0.0000000000000000e+00
41 22       0.0000000000000000e+00
41 23       0.0000000000000000e+00
41 24       0.0000000000000000e+00
41 25       0.0000000000000000e+00
41 26       0.0000000000000000e+00
41 27       0.0000000000000000e+00
41 28       0.0000000000000000e+00
41 29       0.0000000000000000e+00
41 30       0.0000000000000000e+00
41 37       0.0000000000000000e+00
41 38       0.0000000000000000e+00
41 39       0.0000000000000000e+00
41 40       0.0000000000000000e+00
41 42       0.0000000000000000e+00
41 43       0.0000000000000000e+00
41 44       0.0000000000000000e+00
41 45       0.0000000000000000e+00
41 67       0.0000000000000000e+00
41 68       0.0000000000000000e+00
41 69       0.0000000000000000e+00
41 70       0.0000000000000000e+00
41 71       0.0000000000000000e+00
41 72       0.0000000000000000e+00
41 73       0.0000000000000000e+00
41 74       0.0000000000000000e+00
41 75       0.0000000000000000e+00
41 82       0.0000000000000000e+00
41 83       0.0000000000000000e+00
41 84       0.0000000000000000e+00
41 85       0.0000000000000000e+00
41 86       0.0000000000000000e+00
41 87       0.0000000000000000e+00
41 88       0.0000000000000000e+00
41 89       0.0000000000000000e+00
41 90       0.0000000000000000e+00
42 42       0.0000000000000000e+00
42 22       0.0000000000000000e+00
42 23       0.0000000000000000e+00
42 24       0.0000000000000000e+00
42 25       0.0000000000000000e+00
42 26       0.0000000000000000e+00
42 27       0.0000000000000000e+00
42 28       0.0000000000000000e+00
42 29       0.0000000000000000e+00
42 30       0.0000000000000000e+00
42 37       0.0000000000000000e+00
42 38       0.0000000000000000e+00
42 39       0.0000000000000000e+00
42 40       0.0000000000000000e+00
42 41       0.0000000000000000e+00
42 43       0.0000000000000000e+00
42 44       0.0000000000000000e+00
42 45       0.0000000000000000e+00
42 67       0.0000000000000000e+00
42 68       0.0000000000000000e+00
42 69       0.0000000000000000e+00
42 70       0.0000000000000000e+00
42 71       0.0000000000000000e+00
42 72       0.0000000000000000e+00
42 73       0.0000000000000000e+00
42 74       0.0000000000000000e+00
42 75       0.0000000000000000e+00
42 82       0.0000000000000000e+00
42 83       0.0000000000000000e+00
42 84       0.0000000000000000e+00
42 85       0.0000000000000000e+00
42 86       0.0000000000000000e+00
42 87       0.0000000000000000e+00
42 88       0.0000000000000000e+00
42 89       0.0000000000000000e+00
42 90       0.0000000000000000e+00
43 43       0.0000000000000000e+00
43 25       0.0000000000000000e+00
43 26       0.0000000000000000e+00
43 27       0.0000000000000000e+00
43 28       0.0000000000000000e+00
43 29       0.0000000000000000e+00
43 30       0.0000000000000000e+00
43 40       0.0000000000000000e+00
43 41       0.0000000000000000e+00
43 42       0.0000000000000000e+00
43 44       0.0000000000000000e+00
43 45       0.0000000000000000e+00
43 70       0.0000000000000000e+00
43 71       0.0000000000000000e+00
43 72       0.0000000000000000e+00
43 73       0.0000000000000000e+00
43 74       0.0000000000000000e+00
43 75       0.0000000000000000e+00
43 85       0.0000000000000000e+00
43 86       0.0000000000000000e+00
43 87       0.0000000000000000e+00
43 88       0.0000000000000000e+00
43 89       0.0000000000000000e+00
43 90       0.0000000000000000e+00
43 379       0.0000000000000000e+00
43 380       0.0000000000000000e+00
43 381       0.0000000000000000e+00
43 382       0.0000000000000000e+00
43 383       0.0000000000000000e+00
43 384       0.0000000000000000e+00
43 388       0.0000000000000000e+00
43 389       0.0000000000000000e+00
43 390       0.0000000000000000e+00
43 391       0.0000000000000000e+00
43 392       0.0000000000000000e+00
43 393       0.0000000000000000e+00
44 44       0.0000000000000000e+00
44 25       0.0000000000000000e+00
44 26       0.0000000000000000e+00
44 27       0.0000000000000000e+00
44 28       0.0000000000000000e+00
44 29       0.0000000000000000e+00
44 30       0.0000000000000000e+00
44 40       0.0000000000000000e+00
44 41       0.0000000000000000e+00
44 42       0.0000000000000000e+00
44 43       0.0000000000000000e+00
44 45       0.0000000000000000e+00
44 70       0.0000000000000000e+00
44 71       0.0000000000000000e+00
44 72       0.0000000000000000e+00
44 73       0.0000000000000000e+00
44 74       0.0000000000000000e+00
44 75       0.0000000000000000e+00
44 85       0.0000000000000000e+00
44 86       0.0000000000000000e+00
44 87       0.0000000000000000e+00
44 88       0.0000000000000000e+00
44 89       0.0000000000000000e+00
44 90       0.0000000000000000e+00
44 379       0.0000000000000000e+00
44 380       0.0000000000000000e+00
44 381       0.0000000000000000e+00
44 382       0.0000000000000000e+00
44 383       0.0000000000000000e+00
44 384       0.0000000000000000e+00
44 388       0.0000000000000000e+00
44 389       0.0000000000000000e+00
44 390       0.0000000000000000e+00
44 391       0.0000000000000000e+00
44 392       0.0000000000000000e+00
44 393       0.0000000000000000e+00
45 45       0.0000000000000000e+00
45 25       0.0000000000000000e+00
45 26       0.0000000000000000e+00
45 27       0.0000000000000000e+00
45 28       0.0000000000000000e+00
45 29       0.0000000000000000e+00
45 30       0.0000000000000000e+00
45 40       0.0000000000000000e+00
45 41       0.0000000000000000e+00
45 42       0.0000000000000000e+00
45 43       0.0000000000000000e+00
45 44       0.0000000000000000e+00
45 70       0.0000000000000000e+00
45 71       0.0000000000000000e+00
45 72       0.0000000000000000e+00
45 73       0.0000000000000000e+00
45 74       0.0000000000000000e+00
45 75       0.0000000000000000e+00
45 85       0.0000000000000000e+00
45 86       0.0000000000000000e+00
45 87       0.0000000000000000e+00
45 88       0.0000000000000000e+00
45 89       0.0000000000000000e+00
45 90       0.0000000000000000e+00
45 379       0.0000000000000000e+00
45 380       0.0000000000000000e+00
45 381       0.0000000000000000e+00
45 382       0.0000000000000000e+00
45 383       0.0000000000000000e+00
45 384       0.0000000000000000e+00
45 388       0.0000000000000000e+00
45 389       0.0000000000000000e+00
45 390       0.0000000000000000e+00
45 391       0.0000000000000000e+00
45 392       0.0000000000000000e+00
45 393       0.0000000000000000e+00
46 46       0.0000000000000000e+00
46 1       0.0000000000000000e+00
46 2       0.0000000000000000e+00
46 3       0.0000000000000000e+00
46 4       0.0000000000000000e+00
46 5       0.0000000000000000e+00
46 6       0.0000000000000000e+00
46 16       0.0000000000000000e+00
46 17       0.0000000000000000e+00
46 18       0.0000000000000000e+00
46 19       0.0000000000000000e+00
46 20       0.0000000000000000e+00
46 21       0.0000000000000000e+00
46 47       0.0000000000000000e+00
46 48       0.0000000000000000e+00
46 49       0.0000000000000000e+00
46 50       0.0000000000000000e+00
46 51       0.0000000000000000e+00
46 61       0.0000000000000000e+00
46 62       0.0000000000000000e+00
46 63       0.0000000000000000e+00
46 64       0.0000000000000000e+00
46 65       0.0000000000000000e+00
46 66       0.0000000000000000e+00
46 91       0.0000000000000000e+00
46 92       0.0000000000000000e+00
46 93       0.0000000000000000e+00
46 94       0.0000000000000000e+00
46 95       0.0000000000000000e+00
46 96       0.0000000000000000e+00
46 106       0.0000000000000000e+00
46 107       0.0000000000000000e+00
46 108       0.0000000000000000e+00
46 109       0.0000000000000000e+00
46 110       0.0000000000000000e+00
46 111       0.0000000000000000e+00
47 47       0.0000000000000000e+00
47 1       0.0000000000000000e+00
47 2       0.0000000000000000e+00
47 3       0.0000000000000000e+00
47 4       0.0000000000000000e+00
47 5       0.0000000000000000e+00
47 6       0.0000000000000000e+00
47 16       0.0000000000000000e+00
47 17       0.0000000000000000e+00
47 18       0.0000000000000000e+00
47 19       0.0000000000000000e+00
47 20       0.0000000000000000e+00
47 21       0.0000000000000000e+00
47 46       0.0000000000000000e+00
47 48       0.0000000000000000e+00
47 49       0.0000000000000000e+00
47 50       0.0000000000000000e+00
47 51       0.0000000000000000e+00
47 61       0.0000000000000000e+00
47 62       0.0000000000000000e+00
47 63       0.0000000000000000e+00
47 64       0.0000000000000000e+00
47 65       0.0000000000000000e+00
47 66       0.0000000000000000e+00
47 91       0.0000000000000000e+00
47 92       0.0000000000000000e+00
47 93       0.0000000000000000e+00
47 94       0.0000000000000000e+00
47 95       0.0000000000000000e+00
47 96       0.0000000000000000e+00
47 106       0.0000000000000000e+00
47 107       0.0000000000000000e+00
47 108       0.0000000000000000e+00
47 109       0.0000000000000000e+00
47 110       0.0000000000000000e+00
47 111       0.0000000000000000e+00
48 48       0.0000000000000000e+00
48 1       0.0000000000000000e+00
48 2       0.0000000000000000e+00
48 3       0.0000000000000000e+00
48 4       0.0000000000000000e+00
48 5       0.0000000000000000e+00
48 6       0.0000000000000000e+00
48 16       0.0000000000000000e+00
48 17       0.0000000000000000e+00
48 18       0.0000000000000000e+00
48 19       0.0000000000000000e+00
48 20       0.0000000000000000e+00
48 21       0.0000000000000000e+00
48 46       0.0000000000000000e+00
48 47       0.0000000000000000e+00
48 49       0.0000000000000000e+00
48 50       0.0000000000000000e+00
48 51       0.0000000000000000e+00
48 61       0.0000000000000000e+00
48 62       0.0000000000000000e+00
48 63       0.0000000000000000e+00
48 64       0.0000000000000000e+00
48 65       0.0000000000000000e+00
48 66       0.0000000000000000e+00
48 91       0.0000000000000000e+00
48 92       0.0000000000000000e+00
48 93       0.0000000000000000e+00
48 94       0.0000000000000000e+00
48 95       0.0000000000000000e+00
48 96       0.0000000000000000e+00
48 106       0.0000000000000000e+00
48 107       0.0000000000000000e+00
48 108       0.0000000000000000e+00
48 109       0.0000000000000000e+00
48 110       0.0000000000000000e+00
48 111       0.0000000000000000e+00
49 49       0.0000000000000000e+00
49 1       0.0000000000000000e+00
49 2       0.0000000000000000e+00
49 3       0.0000000000000000e+00
49 4       0.0000000000000000e+00
49 5       0.0000000000000000e+00
49 6       0.0000000000000000e+00
49 7       0.0000000000000000e+00
49 8       0.0000000000000000e+00
49 9       0.0000000000000000e+00
49 16       0.0000000000000000e+00
49 17       0.0000000000000000e+00
49 18       0.0000000000000000e+00
49 19       0.0000000000000000e+00
49 20       0.0000000000000000e+00
49 21       0.0000000000000000e+00
49 22       0.0000000000000000e+00
49 23       0.0000000000000000e+00
49 24       0.0000000000000000e+00
49 46       0.0000000000000000e+00
49 47       0.0000000000000000e+00
49 48       0.0000000000000000e+00
49 50       0.0000000000000000e+00
49 51       0.0000000000000000e+00
49 52       0.0000000000000000e+00
49 53       0.0000000000000000e+00
49 54       0.0000000000000000e+00
49 61       0.0000000000000000e+00
49 62       0.0000000000000000e+00
49 63       0.0000000000000000e+00
49 64       0.0000000000000000e+00
49 65       0.0000000000000000e+00
49 66       0.0000000000000000e+00
49 67       0.0000000000000000e+00
49 68       0.0000000000000000e+00
49 69       0.0000000000000000e+00
49 91       0.0000000000000000e+00
49 92       0.0000000000000000e+00
49 93       0.0000000000000000e+00
49 94       0.0000000000000000e+00
49 95       0.0000000000000000e+00
49 96       0.0000000000000000e+00
49 97       0.0000000000000000e+00
49 98       0.0000000000000000e+00
49 99       0.0000000000000000e+00
49 106       0.0000000000000000e+00
49 107       0.0000000000000000e+00
49 108       0.0000000000000000e+00
49 109       0.0000000000000000e+00
49 110       0.0000000000000000e+00
49 111       0.0000000000000000e+00
49 112       0.0000000000000000e+00
49 113       0.0000000000000000e+00
49 114       0.0000000000000000e+00
50 50       0.0000000000000000e+00
50 1       0.0000000000000000e+00
50 2       0.0000000000000000e+00
50 3       0.0000000000000000e+00
50 4       0.0000000000000000e+00
50 5       0.0000000000000000e+00
50 6       0.0000000000000000e+00
50 7       0.0000000000000000e+00
50 8       0.0000000000000000e+00
50 9       0.0000000000000000e+00
50 16       0.0000000000000000e+00
50 17       0.0000000000000000e+00
50 18       0.0000000000000000e+00
50 19       0.0000000000000000e+00
50 20       0.0000000000000000e+00
50 21       0.0000000000000000e+00
50 22       0.0000000000000000e+00
50 23       0.0000000000000000e+00
50 24       0.0000000000000000e+00
50 46       0.0000000000000000e+00
50 47       0.0000000000000000e+00
50 48       0.0000000000000000e+00
50 49       0.0000000000000000e+00
50 51       0.0000000000000000e+00
50 52       0.0000000000000000e+00
50 53       0.0000000000000000e+00
50 54       0.0000000000000000e+00
50 61       0.0000000000000000e+00
50 62       0.0000000000000000e+00
50 63       0.0000000000000000e+00
50 64       0.0000000000000000e+00
50 65       0.0000000000000000e+00
50 66       0.0000000000000000e+00
50 67       0.0000000000000000e+00
50 68       0.0000000000000000e+00
50 69       0.0000000000000000e+00
50 91       0.0000000000000000e+00
50 92       0.0000000000000000e+00
50 93       0.0000000000000000e+00
50 94       0.0000000000000000e+00
50 95       0.0000000000000000e+00
50 96       0.0000000000000000e+00
50 97       0.0000000000000000e+00
50 98       0.0000000000000000e+00
50 99       0.0000000000000000e+00
50 106       0.0000000000000000e+00
50 107       0.0000000000000000e+00
50 108       0.0000000000000000e+00
50 109       0.0000000000000000e+00
50 110       0.0000000000000000e+00
50 111       0.0000000000000000e+00
50 112       0.0000000000000000e+00
50 113       0.0000000000000000e+00
50 114       0.0000000000000000e+00
51 51       0.0000000000000000e+00
51 1       0.0000000000000000e+00
51 2       0.0000000000000000e+00
51 3       0.0000000000000000e+00
51 4       0.0000000000000000e+00
51 5       0.0000000000000000e+00
51 6       0.0000000000000000e+00
51 7       0.0000000000000000e+00
51 8       0.0000000000000000e+00
51 9       0.0000000000000000e+00
51 16       0.0000000000000000e+00
51 17       0.0000000000000000e+00
51 18       0.0000000000000000e+00
51 19       0.0000000000000000e+00
51 20       0.0000000000000000e+00
51 21       0.0000000000000000e+00
51 22       0.0000000000000000e+00
51 23       0.0000000000000000e+00
51 24       0.0000000000000000e+00
51 46       0.0000000000000000e+00
51 47       0.0000000000000000e+00
51 48       0.0000000000000000e+00
51 49       0.0000000000000000e+00
51 50       0.0000000000000000e+00
51 52       0.0000000000000000e+00
51 53       0.0000000000000000e+00
51 54       0.0000000000000000e+00
51 61       0.0000000000000000e+00
51 62       0.0000000000000000e+00
51 63       0.0000000000000000e+00
51 64       0.0000000000000000e+00
51 65       0.0000000000000000e+00
51 66       0.0000000000000000e+00
51 67       0.0000000000000000e+00
51 68       0.0000000000000000e+00
51 69       0.0000000000000000e+00
51 91       0.0000000000000000e+00
51 92       0.0000000000000000e+00
51 93       0.0000000000000000e+00
51 94       0.0000000000000000e+00
51 95       0.0000000000000000e+00
51 96       0.0000000000000000e+00
51 97       0.0000000000000000e+00
51 98       0.0000000000000000e+00
51 99       0.0000000000000000e+00
51 106       0.0000000000000000e+00
51 107       0.0000000000000000e+00
51 108       0.0000000000000000e+00
51 109       0.0000000000000000e+00
51 110       0.0000000000000000e+00
51 111       0.0000000000000000e+00
51 112       0.0000000000000000e+00
51 113       0.0000000000000000e+00
51 114       0.0000000000000000e+00
52 52       0.0000000000000000e+00
52 4       0.0000000000000000e+00
52 5       0.0000000000000000e+00
52 6       0.0000000000000000e+00
52 7       0.0000000000000000e+00
52 8       0.0000000000000000e+00
52 9       0.0000000000000000e+00
52 10       0.0000000000000000e+00
52 11       0.0000000000000000e+00
52 12       0.0000000000000000e+00
52 19       0.0000000000000000e+00
52 20       0.0000000000000000e+00
52 21       0.0000000000000000e+00
52 22       0.0000000000000000e+00
52 23       0.0000000000000000e+00
52 24       0.0000000000000000e+00
52 25       0.0000000000000000e+00
52 26       0.0000000000000000e+00
52 27       0.0000000000000000e+00
52 49       0.0000000000000000e+00
52 50       0.0000000000000000e+00
52 51       0.0000000000000000e+00
52 53       0.0000000000000000e+00
52 54       0.0000000000000000e+00
52 55       0.0000000000000000e+00
52 56       0.0000000000000000e+00
52 57       0.0000000000000000e+00
52 64       0.0000000000000000e+00
52 65       0.0000000000000000e+00
52 66       0.0000000000000000e+00
52 67       0.0000000000000000e+00
52 68       0.0000000000000000e+00
52 69       0.0000000000000000e+00
52 70       0.0000000000000000e+00
52 71       0.0000000000000000e+00
52 72       0.0000000000000000e+00
52 94       0.0000000000000000e+00
52 95       0.0000000000000000e+00
52 96       0.0000000000000000e+00
52 97       0.0000000000000000e+00
52 98       0.0000000000000000e+00
52 99       0.0000000000000000e+00
52 100       0.0000000000000000e+00
52 101       0.0000000000000000e+00
52 102       0.0000000000000000e+00
52 109       0.0000000000000000e+00
52 110       0.0000000000000000e+00
52 111       0.0000000000000000e+00
52 112       0.0000000000000000e+00
52 113       0.0000000000000000e+00
52 114       0.0000000000000000e+00
52 115       0.0000000000000000e+00
52 116       0.0000000000000000e+00
52 117       0.0000000000000000e+00
53 53       0.0000000000000000e+00
53 4       0.0000000000000000e+00
53 5       0.0000000000000000e+00
53 6       0.0000000000000000e+00
53 7       0.0000000000000000e+00
53 8       0.0000000000000000e+00
53 9       0.0000000000000000e+00
53 10       0.0000000000000000e+00
53 11       0.0000000000000000e+00
53 12       0.0000000000000000e+00
53 19       0.0000000000000000e+00
53 20       0.0000000000000000e+00
53 21       0.0000000000000000e+00
53 22       0.0000000000000000e+00
53 23       0.0000000000000000e+00
53 24       0.0000000000000000e+00
53 25       0.0000000000000000e+00
53 26       0.0000000000000000e+00
53 27       0.0000000000000000e+00
53 49       0.0000000000000000e+00
53 50       0.0000000000000000e+00
53 51       0.0000000000000000e+00
53 52       0.0000000000000000e+00
53 54       0.0000000000000000e+00
53 55       0.0000000000000000e+00
53 56       0.0000000000000000e+00
53 57       0.0000000000000000e+00
53 64       0.0000000000000000e+00
53 65       0.0000000000000000e+00
53 66       0.0000000000000000e+00
53 67       0.0000000000000000e+00
53 68       0.0000000000000000e+00
53 69       0.0000000000000000e+00
53 70       0.0000000000000000e+00
53 71       0.0000000000000000e+00
53 72       0.0000000000000000e+00
53 94       0.0000000000000000e+00
53 95       0.0000000000000000e+00
53 96       0.0000000000000000e+00
53 97       0.0000000000000000e+00
53 98       0.0000000000000000e+00
53 99       0.0000000000000000e+00
53 100       0.0000000000000000e+00
53 101       0.0000000000000000e+00
53 102       0.0000000000000000e+00
53 109       0.0000000000000000e+00
53 110       0.0000000000000000e+00
53 111       0.0000000000000000e+00
53 112       0.0000000000000000e+00
53 113       0.0000000000000000e+00
53 114       0.0000000000000000e+00
53 115       0.0000000000000000e+00
53 116       0.0000000000000000e+00
53 117       0.0000000000000000e+00
54 54       0.0000000000000000e+00
54 4       0.0000000000000000e+00
54 5       0.0000000000000000e+00
54 6       0.0000000000000000e+00
54 7       0.0000000000000000e+00
54 8       0.0000000000000000e+00
54 9       0.0000000000000000e+00
54 10       0.0000000000000000e+00
54 11       0.0000000000000000e+00
54 12       0.0000000000000000e+00
54 19       0.0000000000000000e+00
54 20       0.0000000000000000e+00
54 21       0.0000000000000000e+00
54 22       0.0000000000000000e+00
54 23       0.0000000000000000e+00
54 24       0.0000000000000000e+00
54 25       0.0000000000000000e+00
54 26       0.0000000000000000e+00
54 27       0.0000000000000000e+00
54 49       0.0000000000000000e+00
54 50       0.0000000000000000e+00
54 51       0.0000000000000000e+00
54 52       0.0000000000000000e+00
54 53       0.0000000000000000e+00
54 55       0.0000000000000000e+00
54 56       0.0000000000000000e+00
54 57       0.0000000000000000e+00
54 64       0.0000000000000000e+00
54 65       0.0000000000000000e+00
54 66       0.0000000000000000e+00
54 67       0.0000000000000000e+00
54 68       0.0000000000000000e+00
54 69       0.0000000000000000e+00
54 70       0.0000000000000000e+00
54 71       0.0000000000000000e+00
54 72       0.0000000000000000e+00
54 94       0.0000000000000000e+00
54 95       0.0000000000000000e+00
54 96       0.0000000000000000e+00
54 97       0.0000000000000000e+00
54 98       0.0000000000000000e+00
54 99       0.0000000000000000e+00
54 100       0.0000000000000000e+00
54 101       0.0000000000000000e+00
54 102       0.0000000000000000e+00
54 109       0.0000000000000000e+00
54 110       0.0000000000000000e+00
54 111       0.0000000000000000e+00
54 112       0.0000000000000000e+00
54 113       0.0000000000000000e+00
54 114       0.0000000000000000e+00
54 115       0.0000000000000000e+00
54 116       0.0000000000000000e+00
54 117       0.0000000000000000e+00
55 55       0.0000000000000000e+00
55 7       0.0000000000000000e+00
55 8       0.0000000000000000e+00
55 9       0.0000000000000000e+00
55 10       0.0000000000000000e+00
55 11       0.0000000000000000e+00
55 12       0.0000000000000000e+00
55 13       0.0000000000000000e+00
55 14       0.0000000000000000e+00
55 15       0.0000000000000000e+00
55 22       0.0000000000000000e+00
55 23       0.0000000000000000e+00
55 24       0.0000000000000000e+00
55 25       0.0000000000000000e+00
55 26       0.0000000000000000e+00
55 27       0.0000000000000000e+00
55 28       0.0000000000000000e+00
55 29       0.0000000000000000e+00
55 30       0.0000000000000000e+00
55 52       0.0000000000000000e+00
55 53       0.0000000000000000e+00
55 54       0.0000000000000000e+00
55 56       0.0000000000000000e+00
55 57       0.0000000000000000e+00
55 58       0.0000000000000000e+00
55 59       0.0000000000000000e+00
55 60       0.0000000000000000e+00
55 67       0.0000000000000000e+00
55 68       0.0000000000000000e+00
55 69       0.0000000000000000e+00
55 70       0.0000000000000000e+00
55 71       0.0000000000000000e+00
55 72       0.0000000000000000e+00
55 73       0.0000000000000000e+00
55 74       0.0000000000000000e+00
55 75       0.0000000000000000e+00
55 97       0.0000000000000000e+00
55 98       0.0000000000000000e+00
55 99       0.0000000000000000e+00
55 100       0.0000000000000000e+00
55 101       0.0000000000000000e+00
55 102       0.0000000000000000e+00
55 103       0.0000000000000000e+00
55 104       0.0000000000000000e+00
55 105       0.0000000000000000e+00
55 112       0.0000000000000000e+00
55 113       0.0000000000000000e+00
55 114       0.0000000000000000e+00
55 115       0.0000000000000000e+00
55 116       0.0000000000000000e+00
55 117       0.0000000000000000e+00
55 118       0.0000000000000000e+00
55 119       0.0000000000000000e+00
55 120       0.0000000000000000e+00
56 56       0.0000000000000000e+00
56 7       0.0000000000000000e+00
56 8       0.0000000000000000e+00
56 9       0.0000000000000000e+00
56 10       0.0000000000000000e+00
56 11       0.0000000000000000e+00
56 12       0.0000000000000000e+00
56 13       0.0000000000000000e+00
56 14       0.0000000000000000e+00
56 15       0.0000000000000000e+00
56 22       0.0000000000000000e+00
56 23       0.0000000000000000e+00
56 24       0.0000000000000000e+00
56 25       0.0000000000000000e+00
56 26       0.0000000000000000e+00
56 27       0.0000000000000000e+00
56 28       0.0000000000000000e+00
56 29       0.0000000000000000e+00
56 30       0.0000000000000000e+00
56 52       0.0000000000000000e+00
56 53       0.0000000000000000e+00
56 54       0.0000000000000000e+00
56 55       0.0000000000000000e+00
56 57       0.0000000000000000e+00
56 58       0.0000000000000000e+00
56 59       0.0000000000000000e+00
56 60       0.0000000000000000e+00
56 67       0.0000000000000000e+00
56 68       0.0000000000000000e+00
56 69       0.0000000000000000e+00
56 70       0.0000000000000000e+00
56 71       0.0000000000000000e+00
56 72       0.0000000000000000e+00
56 73       0.0000000000000000e+00
56 74       0.0000000000000000e+00
56 75       0.0000000000000000e+00
56 97       0.0000000000000000e+00
56 98       0.0000000000000000e+00
56 99       0.0000000000000000e+00
56 100       0.0000000000000000e+00
56 101       0.0000000000000000e+00
56 102       0.0000000000000000e+00
56 103       0.0000000000000000e+00
56 104       0.0000000000000000e+00
56 105       0.0000000000000000e+00
56 112       0.0000000000000000e+00
56 113       0.0000000000000000e+00
56 114       0.0000000000000000e+00
56 115       0.0000000000000000e+00
56 116       0.0000000000000000e+00
56 117       0.0000000000000000e+00
56 118       0.0000000000000000e+00
56 119       0.0000000000000000e+00
56 120       0.0000000000000000e+00
57 57       0.0000000000000000e+00
57 7       0.0000000000000000e+00
57 8       0.0000000000000000e+00
57 9       0.0000000000000000e+00
57 10       0.0000000000000000e+00
57 11       0.0000000000000000e+00
57 12       0.0000000000000000e+00
57 13       0.0000000000000000e+00
57 14       0.0000000000000000e+00
57 15       0.0000000000000000e+00
57 22       0.0000000000000000e+00
57 23       0.0000000000000000e+00
57 24       0.0000000000000000e+00
57 25       0.0000000000000000e+00
57 26       0.0000000000000000e+00
57 27       0.0000000000000000e+00
57 28       0.0000000000000000e+00
57 29       0.0000000000000000e+00
57 30       0.0000000000000000e+00
57 52       0.0000000000000000e+00
57 53       0.0000000000000000e+00
57 54       0.0000000000000000e+00
57 55       0.0000000000000000e+00
57 56       0.0000000000000000e+00
57 58       0.0000000000000000e+00
57 59       0.0000000000000000e+00
57 60       0.0000000000000000e+00
57 67       0.0000000000000000e+00
57 68       0.0000000000000000e+00
57 69       0.0000000000000000e+00
57 70       0.0000000000000000e+00
57 71       0.0000000000000000e+00
57 72       0.0000000000000000e+00
57 73       0.0000000000000000e+00
57 74       0.0000000000000000e+00
57 75       0.0000000000000000e+00
57 97       0.0000000000000000e+00
57 98       0.0000000000000000e+00
57 99       0.0000000000000000e+00
57 100       0.0000000000000000e+00
57 101       0.0000000000000000e+00
57 102       0.0000000000000000e+00
57 103       0.0000000000000000e+00
57 104       0.0000000000000000e+00
57 105       0.0000000000000000e+00
57 112       0.0000000000000000e+00
57 113       0.0000000000000000e+00
57 114       0.0000000000000000e+00
57 115       0.0000000000000000e+00
57 116       0.0000000000000000e+00
57 117       0.0000000000000000e+00
57 118       0.0000000000000000e+00
57 119       0.0000000000000000e+00
57 120       0.0000000000000000e+00
58 58       0.0000000000000000e+00
58 10       0.0000000000000000e+00
58 11       0.0000000000000000e+00
58 12       0.0000000000000000e+00
58 13       0.0000000000000000e+00
58 14       0.0000000000000000e+00
58 15       0.0000000000000000e+00
58 25       0.0000000000000000e+00
58 26       0.0000000000000000e+00
58 27       0.0000000000000000e+00
58 28       0.0000000000000000e+00
58 29       0.0000000000000000e+00
58 30       0.0000000000000000e+00
58 55       0.0000000000000000e+00
58 56       0.0000000000000000e+00
58 57       0.0000000000000000e+00
58 59       0.0000000000000000e+00
58 60       0.0000000000000000e+00
58 70       0.0000000000000000e+00
58 71       0.0000000000000000e+00
58 72       0.0000000000000000e+00
58 73       0.0000000000000000e+00
58 74       0.0000000000000000e+00
58 75       0.0000000000000000e+00
58 100       0.0000000000000000e+00
58 101       0.0000000000000000e+00
58 102       0.0000000000000000e+00
58 103       0.0000000000000000e+00
58 104       0.0000000000000000e+00
58 105       0.0000000000000000e+00
58 115       0.0000000000000000e+00
58 116       0.0000000000000000e+00
58 117       0.0000000000000000e+00
58 118       0.0000000000000000e+00
58 119       0.0000000000000000e+00
58 120       0.0000000000000000e+00
58 376       0.0000000000000000e+00
58 377       0.0000000000000000e+00
58 378       0.0000000000000000e+00
58 379       0.0000000000000000e+00
58 380       0.0000000000000000e+00
58 381       0.0000000000000000e+00
58 385       0.0000000000000000e+00
58 386       0.0000000000000000e+00
58 387       0.0000000000000000e+00
58 388       0.0000000000000000e+00
58 389       0.0000000000000000e+00
58 390       0.0000000000000000e+00
58 394       0.0000000000000000e+00
58 395       0.0000000000000000e+00
58 396       0.0000000000000000e+00
58 397       0.0000000000000000e+00
58 398       0.0000000000000000e+00
58 399       0.0000000000000000e+00
59 59       0.0000000000000000e+00
59 10       0.0000000000000000e+00
59 11       0.0000000000000000e+00
59 12       0.0000000000000000e+00
59 13       0.0000000000000000e+00
59 14       0.0000000000000000e+00
59 15       0.0000000000000000e+00
59 25       0.0000000000000000e+00
59 26       0.0000000000000000e+00
59 27       0.0000000000000000e+00
59 28       0.0000000000000000e+00
59 29       0.0000000000000000e+00
59 30       0.0000000000000000e+00
59 55       0.0000000000000000e+00
59 56       0.0000000000000000e+00
59 57       0.0000000000000000e+00
59 58       0.0000000000000000e+00
59 60       0.0000000000000000e+00
59 70       0.0000000000000000e+00
59 71       0.0000000000000000e+00
59 72       0.0000000000000000e+00
59 73       0.0000000000000000e+00
59 74       0.0000000000000000e+00
59 75       0.0000000000000000e+00
59 100       0.0000000000000000e+00
59 101       0.0000000000000000e+00
59 102       0.0000000000000000e+00
59 103       0.0000000000000000e+00
59 104       0.0000000000000000e+00
59 105       0.0000000000000000e+00
59 115       0.0000000000000000e+00
59 116       0.0000000000000000e+00
59 117       0.0000000000000000e+00
59 118       0.0000000000000000e+00
59 119       0.0000000000000000e+00
59 120       0.0000000000000000e+00
59 376       0.0000000000000000e+00
59 377       0.0000000000000000e+00
59 378       0.0000000000000000e+00
59 379       0.0000000000000000e+00
59 380       0.0000000000000000e+00
59 381       0.0000000000000000e+00
59 385       0.0000000000000000e+00
59 386       0.0000000000000000e+00
59 387       0.0000000000000000e+00
59 388       0.0000000000000000e+00
59 389       0.0000000000000000e+00
59 390       0.0000000000000000e+00
59 394       0.0000000000000000e+00
59 395       0.0000000000000000e+00
59 396       0.0000000000000000e+00
59 397       0.0000000000000000e+00
59 398       0.0000000000000000e+00
59 399       0.0000000000000000e+00
60 60       0.0000000000000000e+00
60 10       0.0000000000000000e+00
60 11       0.0000000000000000e+00
60 12       0.0000000000000000e+00
60 13       0.0000000000000000e+00
60 14       0.0000000000000000e+00
60 15       0.0000000000000000e+00
60 25       0.0000000000000000e+00
60 26       0.0000000000000000e+00
60 27       0.0000000000000000e+00
60 28       0.0000000000000000e+00
60 29       0.0000000000000000e+00
60 30       0.0000000000000000e+00
60 55       0.0000000000000000e+00
60 56       0.0000000000000000e+00
60 57       0.0000000000000000e+00
60 58       0.0000000000000000e+00
60 59       0.0000000000000000e+00
60 70       0.0000000000000000e+00
60 71       0.0000000000000000e+00
60 72       0.0000000000000000e+00
60 73       0.0000000000000000e+00
60 74       0.0000000000000000e+00
60 75       0.0000000000000000e+00
60 100       0.0000000000000000e+00
60 101       0.0000000000000000e+00
60 102       0.0000000000000000e+00
60 103       0.0000000000000000e+00
60 104       0.0000000000000000e+00
60 105       0.0000000000000000e+00
60 115       0.0000000000000000e+00
60 116       0.0000000000000000e+00
60 117       0.0000000000000000e+00
60 118       0.0000000000000000e+00
60 119       0.0000000000000000e+00
60 120       0.0000000000000000e+00
60 376       0.0000000000000000e+00
60 377       0.0000000000000000e+00
60 378       0.0000000000000000e+00
60 379       0.0000000000000000e+00
60 380       0.0000000000000000e+00
60 381       0.0000000000000000e+00
60 385       0.0000000000000000e+00
60 386       0.0000000000000000e+00
60 387       0.0000000000000000e+00
60 388       0.0000000000000000e+00
60 389       0.0000000000000000e+00
60 390       0.0000000000000000e+00
60 394       0.0000000000000000e+00
60 395       0.0000000000000000e+00
60 396       0.0000000000000000e+00
60 397       0.0000000000000000e+00
60 398       0.0000000000000000e+00
60 399       0.0000000000000000e+00
61 61       0.0000000000000000e+00
61 1       0.0000000000000000e+00
61 2       0.0000000000000000e+00
61 3       0.0000000000000000e+00
61 4       0.0000000000000000e+00
61 5       0.0000000000000000e+00
61 6       0.0000000000000000e+00
61 16       0.0000000000000000e+00
61 17       0.0000000000000000e+00
61 18       0.0000000000000000e+00
61 19       0.0000000000000000e+00
61 20       0.0000000000000000e+00
61 21       0.0000000000000000e+00
61 31       0.0000000000000000e+00
61 32       0.0000000000000000e+00
61 33       0.0000000000000000e+00
61 34       0.0000000000000000e+00
61 35       0.0000000000000000e+00
61 36       0.0000000000000000e+00
61 46       0.0000000000000000e+00
61 47       0.0000000000000000e+00
61 48       0.0000000000000000e+00
61 49       0.0000000000000000e+00
61 50       0.0000000000000000e+00
61 51       0.0000000000000000e+00
61 62       0.0000000000000000e+00
61 63       0.0000000000000000e+00
61 64       0.0000000000000000e+00
61 65       0.0000000000000000e+00
61 66       0.0000000000000000e+00
61 76       0.0000000000000000e+00
61 77       0.0000000000000000e+00
61 78       0.0000000000000000e+00
61 79       0.0000000000000000e+00
61 80       0.0000000000000000e+00
61 81       0.0000000000000000e+00
61 91       0.0000000000000000e+00
61 92       0.0000000000000000e+00
61 93       0.0000000000000000e+00
61 94       0.0000000000000000e+00
61 95       0.0000000000000000e+00
61 96       0.0000000000000000e+00
61 106       0.0000000000000000e+00
61 107       0.0000000000000000e+00
61 108       0.0000000000000000e+00
61 109       0.0000000000000000e+00
61 110       0.0000000000000000e+00
61 111       0.0000000000000000e+00
61 121       0.0000000000000000e+00
61 122       0.0000000000000000e+00
61 123       0.0000000000000000e+00
61 124       0.0000000000000000e+00
61 125       0.0000000000000000e+00
61 126       0.0000000000000000e+00
62 62       0.0000000000000000e+00
62 1       0.0000000000000000e+00
62 2       0.0000000000000000e+00
62 3       0.0000000000000000e+00
62 4       0.0000000000000000e+00
62 5       0.0000000000000000e+00
62 6       0.0000000000000000e+00
62 16       0.0000000000000000e+00
62 17       0.0000000000000000e+00
62 18       0.0000000000000000e+00
62 19       0.0000000000000000e+00
62 20       0.0000000000000000e+00
62 21       0.0000000000000000e+00
62 31       0.0000000000000000e+00
62 32       0.0000000000000000e+00
62 33       0.0000000000000000e+00
62 34       0.0000000000000000e+00
62 35       0.0000000000000000e+00
62 36       0.0000000000000000e+00
62 46       0.0000000000000000e+00
62 47       0.0000000000000000e+00
62 48       0.0000000000000000e+00
62 49       0.0000000000000000e+00
62 50       0.0000000000000000e+00
62 51       0.0000000000000000e+00
62 61       0.0000000000000000e+00
62 63       0.0000000000000000e+00
62 64       0.0000000000000000e+00
62 65       0.0000000000000000e+00
62 66       0.0000000000000000e+00
62 76       0.0000000000000000e+00
62 77       0.0000000000000000e+00
62 78       0.0000000000000000e+00
62 79       0.0000000000000000e+00
62 80       0.0000000000000000e+00
62 81       0.0000000000000000e+00
62 91       0.0000000000000000e+00
62 92       0.0000000000000000e+00
62 93       0.0000000000000000e+00
62 94       0.0000000000000000e+00
62 95       0.0000000000000000e+00
62 96       0.0000000000000000e+00
62 106       0.0000000000000000e+00
62 107       0.0000000000000000e+00
62 108       0.0000000000000000e+00
62 109       0.0000000000000000e+00
62 110       0.0000000000000000e+00
62 111       0.0000000000000000e+00
62 121       0.0000000000000000e+00
62 122       0.0000000000000000e+00
62 123       0.0000000000000000e+00
62 124       0.0000000000000000e+00
62 125       0.0000000000000000e+00
62 126       0.0000000000000000e+00
63 63       0.0000000000000000e+00
63 1       0.0000000000000000e+00
63 2       0.0000000000000000e+00
63 3       0.0000000000000000e+00
63 4       0.0000000000000000e+00
63 5       0.0000000000000000e+00
63 6       0.0000000000000000e+00
63 16       0.0000000000000000e+00
63 17       0.0000000000000000e+00
63 18       0.0000000000000000e+00
63 19       0.0000000000000000e+00
63 20       0.0000000000000000e+00
63 21       0.0000000000000000e+00
63 31       0.0000000000000000e+00
63 32       0.0000000000000000e+00
63 33       0.0000000000000000e+00
63 34       0.0000000000000000e+00
63 35       0.0000000000000000e+00
63 36       0.0000000000000000e+00
63 46       0.0000000000000000e+00
63 47       0.0000000000000000e+00
63 48       0.0000000000000000e+00
63 49       0.0000000000000000e+00
63 50       0.0000000000000000e+00
63 51       0.0000000000000000e+00
63 61       0.0000000000000000e+00
63 62       0.0000000000000000e+00
63 64       0.0000000000000000e+00
63 65       0.0000000000000000e+00
63 66       0.0000000000000000e+00
63 76       0.0000000000000000e+00
63 77       0.0000000000000000e+00
63 78       0.0000000000000000e+00
63 79       0.0000000000000000e+00
63 80       0.0000000000000000e+00
63 81       0.0000000000000000e+00
63 91       0.0000000000000000e+00
63 92       0.0000000000000000e+00
63 93       0.0000000000000000e+00
63 94       0.0000000000000000e+00
63 95       0.0000000000000000e+00
63 96       0.0000000000000000e+00
63 106       0.0000000000000000e+00
63 107       0.0000000000000000e+00
63 108       0.0000000000000000e+00
63 109       0.0000000000000000e+00
63 110       0.0000000000000000e+00
63 111       0.0000000000000000e+00
63 121       0.0000000000000000e+00
63 122       0.0000000000000000e+00
63 123       0.0000000000000000e+00
63 124       0.0000000000000000e+00
63 125       0.0000000000000000e+00
63 126       0.0000000000000000e+00
64 64       0.0000000000000000e+00
64 1       0.0000000000000000e+00
64 2       0.0000000000000000e+00
64 3       0.0000000000000000e+00
64 4       0.0000000000000000e+00
64 5       0.0000000000000000e+00
64 6       0.0000000000000000e+00
64 7       0.0000000000000000e+00
64 8       0.0000000000000000e+00
64 9       0.0000000000000000e+00
64 16       0.0000000000000000e+00
64 17       0.0000000000000000e+00
64 18       0.0000000000000000e+00
64 19       0.0000000000000000e+00
64 20       0.0000000000000000e+00
64 21       0.0000000000000000e+00
64 22       0.0000000000000000e+00
64 23       0.0000000000000000e+00
64 24       0.0000000000000000e+00
64 31       0.0000000000000000e+00
64 32       0.0000000000000000e+00
64 33       0.0000000000000000e+00
64 34       0.0000000000000000e+00
64 35       0.0000000000000000e+00
64 36       0.0000000000000000e+00
64 37       0.0000000000000000e+00
64 38       0.0000000000000000e+00
64 39       0.0000000000000000e+00
64 46       0.0000000000000000e+00
64 47       0.0000000000000000e+00
64 48       0.0000000000000000e+00
64 49       0.0000000000000000e+00
64 50       0.0000000000000000e+00
64 51       0.0000000000000000e+00
64 52       0.0000000000000000e+00
64 53       0.0000000000000000e+00
64 54       0.0000000000000000e+00
64 61       0.0000000000000000e+00
64 62       0.0000000000000000e+00
64 63       0.0000000000000000e+00
64 65       0.0000000000000000e+00
64 66       0.0000000000000000e+00
64 67       0.0000000000000000e+00
64 68       0.0000000000000000e+00
64 69       0.0000000000000000e+00
64 76       0.0000000000000000e+00
64 77       0.0000000000000000e+00
64 78       0.0000000000000000e+00
64 79       0.0000000000000000e+00
64 80       0.0000000000000000e+00
64 81       0.0000000000000000e+00
64 82       0.0000000000000000e+00
64 83       0.0000000000000000e+00
64 84       0.0000000000000000e+00
64 91       0.0000000000000000e+00
64 92       0.0000000000000000e+00
64 93       0.0000000000000000e+00
64 94       0.0000000000000000e+00
64 95       0.0000000000000000e+00
64 96       0.0000000000000000e+00
64 97       0.0000000000000000e+00
64 98       0.0000000000000000e+00
64 99       0.0000000000000000e+00
64 106       0.0000000000000000e+00
64 107       0.0000000000000000e+00
64 108       0.0000000000000000e+00
64 109       0.0000000000000000e+00
64 110       0.0000000000000000e+00
64 111       0.0000000000000000e+00
64 112       0.0000000000000000e+00
64 113       0.0000000000000000e+00
64 114       0.0000000000000000e+00
64 121       0.0000000000000000e+00
64 122       0.0000000000000000e+00
64 123       0.0000000000000000e+00
64 124       0.0000000000000000e+00
64 125       0.0000000000000000e+00
64 126       0.0000000000000000e+00
64 127       0.0000000000000000e+00
64 128       0.0000000000000000e+00
64 129       0.0000000000000000e+00
65 65       0.0000000000000000e+00
65 1       0.0000000000000000e+00
65 2       0.0000000000000000e+00
65 3       0.0000000000000000e+00
65 4       0.0000000000000000e+00
65 5       0.0000000000000000e+00
65 6       0.0000000000000000e+00
65 7       0.0000000000000000e+00
65 8       0.0000000000000000e+00
65 9       0.0000000000000000e+00
65 16       0.0000000000000000e+00
65 17       0.0000000000000000e+00
65 18       0.0000000000000000e+00
65 19       0.0000000000000000e+00
65 20       0.0000000000000000e+00
65 21       0.0000000000000000e+00
65 22       0.0000000000000000e+00
65 23       0.0000000000000000e+00
65 24       0.0000000000000000e+00
65 31       0.0000000000000000e+00
65 32       0.0000000000000000e+00
65 33       0.0000000000000000e+00
65 34       0.0000000000000000e+00
65 35       0.0000000000000000e+00
65 36       0.0000000000000000e+00
65 37       0.0000000000000000e+00
65 38       0.0000000000000000e+00
65 39       0.0000000000000000e+00
65 46       0.0000000000000000e+00
65 47       0.0000000000000000e+00
65 48       0.0000000000000000e+00
65 49       0.0000000000000000e+00
65 50       0.0000000000000000e+00
65 51       0.0000000000000000e+00
65 52       0.0000000000000000e+00
65 53       0.0000000000000000e+00
65 54       0.0000000000000000e+00
65 61       0.0000000000000000e+00
65 62       0.0000000000000000e+00
65 63       0.0000000000000000e+00
65 64       0.0000000000000000e+00
65 66       0.0000000000000000e+00
65 67       0.0000000000000000e+00
65 68       0.0000000000000000e+00
65 69       0.0000000000000000e+00
65 76       0.0000000000000000e+00
65 77       0.0000000000000000e+00
65 78       0.0000000000000000e+00
65 79       0.0000000000000000e+00
65 80       0.0000000000000000e+00
65 81       0.0000000000000000e+00
65 82       0.0000000000000000e+00
65 83       0.0000000000000000e+00
65 84       0.0000000000000000e+00
65 91       0.0000000000000000e+00
65 92       0.0000000000000000e+00
65 93       0.0000000000000000e+00
65 94       0.0000000000000000e+00
65 95       0.0000000000000000e+00
65 96       0.0000000000000000e+00
65 97       0.0000000000000000e+00
65 98       0.0000000000000000e+00
65 99       0.0000000000000000e+00
65 106       0.0000000000000000e+00
65 107       0.0000000000000000e+00
65 108       0.0000000000000000e+00
65 109       0.0000000000000000e+00
65 110       0.0000000000000000e+00
65 111       0.0000000000000000e+00
65 112       0.0000000000000000e+00
65 113       0.0000000000000000e+00
65 114       0.0000000000000000e+00
65 121       0.0000000000000000e+00
65 122       0.0000000000000000e+00
65 123       0.0000000000000000e+00
65 124       0.0000000000000000e+00
65 125       0.0000000000000000e+00
65 126       0.0000000000000000e+00
65 127       0.0000000000000000e+00
65 128       0.0000000000000000e+00
65 129       0.0000000000000000e+00
66 66       0.0000000000000000e+00
66 1       0.0000000000000000e+00
66 2       0.0000000000000000e+00
66 3       0.0000000000000000e+00
66 4       0.0000000000000000e+00
66 5       0.0000000000000000e+00
66 6       0.0000000000000000e+00
66 7       0.0000000000000000e+00
66 8       0.0000000000000000e+00
66 9       0.0000000000000000e+00
66 16       0.0000000000000000e+00
66 17       0.0000000000000000e+00
66 18       0.0000000000000000e+00
66 19       0.0000000000000000e+00
66 20       0.0000000000000000e+00
66 21       0.0000000000000000e+00
66 22       0.0000000000000000e+00
66 23       0.0000000000000000e+00
66 24       0.0000000000000000e+00
66 31       0.0000000000000000e+00
66 32       0.0000000000000000e+00
66 33       0.0000000000000000e+00
66 34       0.0000000000000000e+00
66 35       0.0000000000000000e+00
66 36       0.0000000000000000e+00
66 37       0.0000000000000000e+00
66 38       0.0000000000000000e+00
66 39       0.0000000000000000e+00
66 46       0.0000000000000000e+00
66 47       0.0000000000000000e+00
66 48       0.0000000000000000e+00
66 49       0.0000000000000000e+00
66 50       0.0000000000000000e+00
66 51       0.0000000000000000e+00
66 52       0.0000000000000000e+00
66 53       0.0000000000000000e+00
66 54       0.0000000000000000e+00
66 61       0.0000000000000000e+00
66 62       0.0000000000000000e+00
66 63       0.0000000000000000e+00
66 64       0.0000000000000000e+00
66 65       0.0000000000000000e+00
66 67       0.0000000000000000e+00
66 68       0.0000000000000000e+00
66 69       0.0000000000000000e+00
66 76       0.0000000000000000e+00
66 77       0.0000000000000000e+00
66 78       0.0000000000000000e+00
66 79       0.0000000000000000e+00
66 80       0.0000000000000000e+00
66 81       0.0000000000000000e+00
66 82       0.0000000000000000e+00
66 83       0.0000000000000000e+00
66 84       0.0000000000000000e+00
66 91       0.0000000000000000e+00
66 92       0.0000000000000000e+00
66 93       0.0000000000000000e+00
66 94       0.0000000000000000e+00
66 95       0.0000000000000000e+00
66 96       0.0000000000000000e+00
66 97       0.0000000000000000e+00
66 98       0.0000000000000000e+00
66 99       0.0000000000000000e+00
66 106       0.0000000000000000e+00
66 107       0.0000000000000000e+00
66 108       0.0000000000000000e+00
66 109       0.0000000000000000e+00
66 110       0.0000000000000000e+00
66 111       0.0000000000000000e+00
66 112       0.0000000000000000e+00
66 113       0.0000000000000000e+00
66 114       0.0000000000000000e+00
66 121       0.0000000000000000e+00
66 122       0.0000000000000000e+00
66 123       0.0000000000000000e+00
66 124       0.0000000000000000e+00
66 125       0.0000000000000000e+00
66 126       0.0000000000000000e+00
66 127       0.0000000000000000e+00
66 128       0.0000000000000000e+00
66 129       0.0000000000000000e+00
67 67       0.0000000000000000e+00
67 4       0.0000000000000000e+00
67 5       0.0000000000000000e+00
67 6       0.0000000000000000e+00
67 7       0.0000000000000000e+00
67 8       0.0000000000000000e+00
67 9       0.0000000000000000e+00
67 10       0.0000000000000000e+00
67 11       0.0000000000000000e+00
67 12       0.0000000000000000e+00
67 19       0.0000000000000000e+00
67 20       0.0000000000000000e+00
67 21       0.0000000000000000e+00
67 22       0.0000000000000000e+00
67 23       0.0000000000000000e+00
67 24       0.0000000000000000e+00
67 25       0.0000000000000000e+00
67 26       0.0000000000000000e+00
67 27       0.0000000000000000e+00
67 34       0.0000000000000000e+00
67 35       0.0000000000000000e+00
67 36       0.0000000000000000e+00
67 37       0.0000000000000000e+00
67 38       0.0000000000000000e+00
67 39       0.0000000000000000e+00
67 40       0.0000000000000000e+00
67 41       0.0000000000000000e+00
67 42       0.0000000000000000e+00
67 49       0.0000000000000000e+00
67 50       0.0000000000000000e+00
67 51       0.0000000000000000e+00
67 52       0.0000000000000000e+00
67 53       0.0000000000000000e+00
67 54       0.0000000000000000e+00
67 55       0.0000000000000000e+00
67 56       0.0000000000000000e+00
67 57       0.0000000000000000e+00
67 64       0.0000000000000000e+00
67 65       0.0000000000000000e+00
67 66       0.0000000000000000e+00
67 68       0.0000000000000000e+00
67 69       0.0000000000000000e+00
67 70       0.0000000000000000e+00
67 71       0.0000000000000000e+00
67 72       0.0000000000000000e+00
67 79       0.0000000000000000e+00
67 80       0.0000000000000000e+00
67 81       0.0000000000000000e+00
67 82       0.0000000000000000e+00
67 83       0.0000000000000000e+00
67 84       0.0000000000000000e+00
67 85       0.0000000000000000e+00
67 86       0.0000000000000000e+00
67 87       0.0000000000000000e+00
67 94       0.0000000000000000e+00
67 95       0.0000000000000000e+00
67 96       0.0000000000000000e+00
67 97       0.0000000000000000e+00
67 98       0.0000000000000000e+00
67 99       0.0000000000000000e+00
67 100       0.0000000000000000e+00
67 101       0.0000000000000000e+00
67 102       0.0000000000000000e+00
67 109       0.0000000000000000e+00
67 110       0.0000000000000000e+00
67 111       0.0000000000000000e+00
67 112       0.0000000000000000e+00
67 113       0.0000000000000000e+00
67 114       0.0000000000000000e+00
67 115       0.0000000000000000e+00
67 116       0.0000000000000000e+00
67 117       0.0000000000000000e+00
67 124       0.0000000000000000e+00
67 125       0.0000000000000000e+00
67 126       0.0000000000000000e+00
67 127       0.0000000000000000e+00
67 128       0.0000000000000000e+00
67 129       0.0000000000000000e+00
67 130       0.0000000000000000e+00
67 131       0.0000000000000000e+00
67 132       0.0000000000000000e+00
68 68       0.0000000000000000e+00
68 4       0.0000000000000000e+00
68 5       0.0000000000000000e+00
68 6       0.0000000000000000e+00
68 7       0.0000000000000000e+00
68 8       0.0000000000000000e+00
68 9       0.0000000000000000e+00
68 10       0.0000000000000000e+00
68 11       0.0000000000000000e+00
68 12       0.0000000000000000e+00
68 19       0.0000000000000000e+00
68 20       0.0000000000000000e+00
68 21       0.0000000000000000e+00
68 22       0.0000000000000000e+00
68 23       0.0000000000000000e+00
68 24       0.0000000000000000e+00
68 25       0.0000000000000000e+00
68 26       0.0000000000000000e+00
68 27       0.0000000000000000e+00
68 34       0.0000000000000000e+00
68 35       0.0000000000000000e+00
68 36       0.0000000000000000e+00
68 37       0.0000000000000000e+00
68 38       0.0000000000000000e+00
68 39       0.0000000000000000e+00
68 40       0.0000000000000000e+00
68 41       0.0000000000000000e+00
68 42       0.0000000000000000e+00
68 49       0.0000000000000000e+00
68 50       0.0000000000000000e+00
68 51       0.0000000000000000e+00
68 52       0.0000000000000000e+00
68 53       0.0000000000000000e+00
68 54       0.0000000000000000e+00
68 55       0.0000000000000000e+00
68 56       0.0000000000000000e+00
68 57       0.0000000000000000e+00
68 64       0.0000000000000000e+00
68 65       0.0000000000000000e+00
68 66       0.0000000000000000e+00
68 67       0.0000000000000000e+00
68 69       0.0000000000000000e+00
68 70       0.0000000000000000e+00
68 71       0.0000000000000000e+00
68 72       0.0000000000000000e+00
68 79       0.0000000000000000e+00
68 80       0.0000000000000000e+00
68 81       0.0000000000000000e+00
68 82       0.0000000000000000e+00
68 83       0.0000000000000000e+00
68 84       0.0000000000000000e+00
68 85       0.0000000000000000e+00
68 86       0.0000000000000000e+00
68 87       0.0000000000000000e+00
68 94       0.0000000000000000e+00
68 95       0.0000000000000000e+00
68 96       0.0000000000000000e+00
68 97       0.0000000000000000e+00
68 98       0.0000000000000000e+00
68 99       0.0000000000000000e+00
68 100       0.0000000000000000e+00
68 101       0.0000000000000000e+00
68 102       0.0000000000000000e+00
68 109       0.0000000000000000e+00
68 110       0.0000000000000000e+00
68 111       0.0000000000000000e+00
68 112       0.0000000000000000e+00
68 113       0.0000000000000000e+00
68 114       0.0000000000000000e+00
68 115       0.0000000000000000e+00
68 116       0.0000000000000000e+00
68 117       0.0000000000000000e+00
68 124       0.0000000000000000e+00
68 125       0.0000000000000000e+00
68 126       0.0000000000000000e+00
68 127       0.0000000000000000e+00
68 128       0.0000000000000000e+00
68 129       0.0000000000000000e+00
68 130       0.0000000000000000e+00
68 131       0.0000000000000000e+00
68 132       0.0000000000000000e+00
69 69       0.0000000000000000e+00
69 4       0.0000000000000000e+00
69 5       0.0000000000000000e+00
69 6       0.0000000000000000e+00
69 7       0.0000000000000000e+00
69 8       0.0000000000000000e+00
69 9       0.0000000000000000e+00
69 10       0.0000000000000000e+00
69 11       0.0000000000000000e+00
69 12       0.0000000000000000e+00
69 19       0.0000000000000000e+00
69 20       0.0000000000000000e+00
69 21       0.0000000000000000e+00
69 22       0.0000000000000000e+00
69 23       0.0000000000000000e+00
69 24       0.0000000000000000e+00
69 25       0.0000000000000000e+00
69 26       0.0000000000000000e+00
69 27       0.0000000000000000e+00
69 34       0.0000000000000000e+00
69 35       0.0000000000000000e+00
69 36       0.0000000000000000e+00
69 37       0.0000000000000000e+00
69 38       0.0000000000000000e+00
69 39       0.0000000000000000e+00
69 40       0.0000000000000000e+00
69 41       0.0000000000000000e+00
69 42       0.0000000000000000e+00
69 49       0.0000000000000000e+00
69 50       0.0000000000000000e+00
69 51       0.0000000000000000e+00
69 52       0.0000000000000000e+00
69 53       0.0000000000000000e+00
69 54       0.0000000000000000e+00
69 55       0.0000000000000000e+00
69 56       0.0000000000000000e+00
69 57       0.0000000000000000e+00
69 64       0.0000000000000000e+00
69 65       0.0000000000000000e+00
69 66       0.0000000000000000e+00
69 67       0.0000000000000000e+00
69 68       0.0000000000000000e+00
69 70       0.0000000000000000e+00
69 71       0.0000000000000000e+00
69 72       0.0000000000000000e+00
69 79       0.0000000000000000e+00
69 80       0.0000000000000000e+00
69 81       0.0000000000000000e+00
69 82       0.0000000000000000e+00
69 83       0.0000000000000000e+00
69 84       0.0000000000000000e+00
69 85       0.0000000000000000e+00
69 86       0.0000000000000000e+00
69 87       0.0000000000000000e+00
69 94       0.0000000000000000e+00
69 95       0.0000000000000000e+00
69 96       0.0000000000000000e+00
69 97       0.0000000000000000e+00
69 98       0.0000000000000000e+00
69 99       0.0000000000000000e+00
69 100       0.0000000000000000e+00
69 101       0.0000000000000000e+00
69 102       0.0000000000000000e+00
69 109       0.0000000000000000e+00
69 110       0.0000000000000000e+00
69 111       0.0000000000000000e+00
69 112       0.0000000000000000e+00
69 113       0.0000000000000000e+00
69 114       0.0000000000000000e+00
69 115       0.0000000000000000e+00
69 116       0.0000000000000000e+00
69 117       0.0000000000000000e+00
69 124       0.0000000000000000e+00
69 125       0.0000000000000000e+00
69 126       0.0000000000000000e+00
69 127       0.0000000000000000e+00
69 128       0.0000000000000000e+00
69 129       0.0000000000000000e+00
69 130       0.0000000000000000e+00
69 131       0.0000000000000000e+00
69 132       0.0000000000000000e+00
70 70       0.0000000000000000e+00
70 7       0.0000000000000000e+00
70 8       0.0000000000000000e+00
70 9       0.0000000000000000e+00
70 10       0.0000000000000000e+00
70 11       0.0000000000000000e+00
70 12       0.0000000000000000e+00
70 13       0.0000000000000000e+00
70 14       0.0000000000000000e+00
70 15       0.0000000000000000e+00
70 22       0.0000000000000000e+00
70 23       0.0000000000000000e+00
70 24       0.0000000000000000e+00
70 25       0.0000000000000000e+00
70 26       0.0000000000000000e+00
70 27       0.0000000000000000e+00
70 28       0.0000000000000000e+00
70 29       0.0000000000000000e+00
70 30       0.0000000000000000e+00
70 37       0.0000000000000000e+00
70 38       0.0000000000000000e+00
70 39       0.0000000000000000e+00
70 40       0.0000000000000000e+00
70 41       0.0000000000000000e+00
70 42       0.0000000000000000e+00
70 43       0.0000000000000000e+00
70 44       0.0000000000000000e+00
70 45       0.0000000000000000e+00
70 52       0.0000000000000000e+00
70 53       0.0000000000000000e+00
70 54       0.0000000000000000e+00
70 55       0.0000000000000000e+00
70 56       0.0000000000000000e+00
70 57       0.0000000000000000e+00
70 58       0.0000000000000000e+00
70 59       0.0000000000000000e+00
70 60       0.0000000000000000e+00
70 67       0.0000000000000000e+00
70 68       0.0000000000000000e+00
70 69       0.0000000000000000e+00
70 71       0.0000000000000000e+00
70 72       0.0000000000000000e+00
70 73       0.0000000000000000e+00
70 74       0.0000000000000000e+00
70 75       0.0000000000000000e+00
70 82       0.0000000000000000e+00
70 83       0.0000000000000000e+00
70 84       0.0000000000000000e+00
70 85       0.0000000000000000e+00
70 86       0.0000000000000000e+00
70 87       0.0000000000000000e+00
70 88       0.0000000000000000e+00
70 89       0.0000000000000000e+00
70 90       0.0000000000000000e+00
70 97       0.0000000000000000e+00
70 98       0.0000000000000000e+00
70 99       0.0000000000000000e+00
70 100       0.0000000000000000e+00
70 101       0.0000000000000000e+00
70 102       0.0000000000000000e+00
70 103       0.0000000000000000e+00
70 104       0.0000000000000000e+00
70 105       0.0000000000000000e+00
70 112       0.0000000000000000e+00
70 113       0.0000000000000000e+00
70 114       0.0000000000000000e+00
70 115       0.0000000000000000e+00
70 116       0.0000000000000000e+00
70 117       0.0000000000000000e+00
70 118       0.0000000000000000e+00
70 119       0.0000000000000000e+00
70 120       0.0000000000000000e+00
70 127       0.0000000000000000e+00
70 128       0.0000000000000000e+00
70 129       0.0000000000000000e+00
70 130       0.0000000000000000e+00
70 131       0.0000000000000000e+00
70 132       0.0000000000000000e+00
70 133       0.0000000000000000e+00
70 134       0.0000000000000000e+00
70 135       0.0000000000000000e+00
71 71       0.0000000000000000e+00
71 7       0.0000000000000000e+00
71 8       0.0000000000000000e+00
71 9       0.0000000000000000e+00
71 10       0.0000000000000000e+00
71 11       0.0000000000000000e+00
71 12       0.0000000000000000e+00
71 13       0.0000000000000000e+00
71 14       0.0000000000000000e+00
71 15       0.0000000000000000e+00
71 22       0.0000000000000000e+00
71 23       0.0000000000000000e+00
71 24       0.0000000000000000e+00
71 25       0.0000000000000000e+00
71 26       0.0000000000000000e+00
71 27       0.0000000000000000e+00
71 28       0.0000000000000000e+00
71 29       0.0000000000000000e+00
71 30       0.0000000000000000e+00
71 37       0.0000000000000000e+00
71 38       0.0000000000000000e+00
71 39       0.0000000000000000e+00
71 40       0.0000000000000000e+00
71 41       0.0000000000000000e+00
71 42       0.0000000000000000e+00
71 43       0.0000000000000000e+00
71 44       0.0000000000000000e+00
71 45       0.0000000000000000e+00
71 52       0.0000000000000000e+00
71 53       0.0000000000000000e+00
71 54       0.0000000000000000e+00
71 55       0.0000000000000000e+00
71 56       0.0000000000000000e+00
71 57       0.0000000000000000e+00
71 58       0.0000000000000000e+00
71 59       0.0000000000000000e+00
71 60       0.0000000000000000e+00
71 67       0.0000000000000000e+00
71 68       0.0000000000000000e+00
71 69       0.0000000000000000e+00
71 70       0.0000000000000000e+00
71 72       0.0000000000000000e+00
71 73       0.0000000000000000e+00
71 74       0.0000000000000000e+00
71 75       0.0000000000000000e+00
71 82       0.0000000000000000e+00
71 83       0.0000000000000000e+00
71 84       0.0000000000000000e+00
71 85       0.0000000000000000e+00
71 86       0.0000000000000000e+00
71 87       0.0000000000000000e+00
71 88       0.0000000000000000e+00
71 89       0.0000000000000000e+00
71 90       0.0000000000000000e+00
71 97       0.0000000000000000e+00
71 98       0.0000000000000000e+00
71 99       0.0000000000000000e+00
71 100       0.0000000000000000e+00
71 101       0.0000000000000000e+00
71 102       0.0000000000000000e+00
71 103       0.0000000000000000e+00
71 104       0.0000000000000000e+00
71 105       0.0000000000000000e+00
71 112       0.0000000000000000e+00
71 113       0.0000000000000000e+00
71 114       0.0000000000000000e+00
71 115       0.0000000000000000e+00
71 116       0.0000000000000000e+00
71 117       0.0000000000000000e+00
71 118       0.0000000000000000e+00
71 119       0.0000000000000000e+00
71 120       0.0000000000000000e+00
71 127       0.0000000000000000e+00
71 128       0.0000000000000000e+00
71 129       0.0000000000000000e+00
71 130       0.0000000000000000e+00
71 131       0.0000000000000000e+00
71 132       0.0000000000000000e+00
71 133       0.0000000000000000e+00
71 134       0.0000000000000000e+00
71 135       0.0000000000000000e+00
72 72       0.0000000000000000e+00
72 7       0.0000000000000000e+00
72 8       0.0000000000000000e+00
72 9       0.0000000000000000e+00
72 10       0.0000000000000000e+00
72 11       0.0000000000000000e+00
72 12       0.0000000000000000e+00
72 13       0.0000000000000000e+00
72 14       0.0000000000000000e+00
72 15       0.0000000000000000e+00
72 22       0.0000000000000000e+00
72 23       0.0000000000000000e+00
72 24       0.0000000000000000e+00
72 25       0.0000000000000000e+00
72 26       0.0000000000000000e+00
72 27       0.0000000000000000e+00
72 28       0.0000000000000000e+00
72 29       0.0000000000000000e+00
72 30       0.0000000000000000e+00
72 37       0.0000000000000000e+00
72 38       0.0000000000000000e+00
72 39       0.0000000000000000e+00
72 40       0.0000000000000000e+00
72 41       0.0000000000000000e+00
72 42       0.0000000000000000e+00
72 43       0.0000000000000000e+00
72 44       0.0000000000000000e+00
72 45       0.0000000000000000e+00
72 52       0.0000000000000000e+00
72 53       0.0000000000000000e+00
72 54       0.0000000000000000e+00
72 55       0.0000000000000000e+00
72 56       0.0000000000000000e+00
72 57       0.0000000000000000e+00
72 58       0.0000000000000000e+00
72 59       0.0000000000000000e+00
72 60       0.0000000000000000e+00
72 67       0.0000000000000000e+00
72 68       0.0000000000000000e+00
72 69       0.0000000000000000e+00
72 70       0.0000000000000000e+00
72 71       0.0000000000000000e+00
72 73       0.0000000000000000e+00
72 74       0.0000000000000000e+00
72 75       0.0000000000000000e+00
72 82       0.0000000000000000e+00
72 83       0.0000000000000000e+00
72 84       0.0000000000000000e+00
72 85       0.0000000000000000e+00
72 86       0.0000000000000000e+00
72 87       0.0000000000000000e+00
72 88       0.0000000000000000e+00
72 89       0.0000000000000000e+00
72 90       0.0000000000000000e+00
72 97       0.0000000000000000e+00
72 98       0.0000000000000000e+00
72 99       0.0000000000000000e+00
72 100       0.0000000000000000e+00
72 101       0.0000000000000000e+00
72 102       0.0000000000000000e+00
72 103       0.0000000000000000e+00
72 104       0.0000000000000000e+00
72 105       0.0000000000000000e+00
72 112       0.0000000000000000e+00
72 113       0.0000000000000000e+00
72 114       0.0000000000000000e+00
72 115       0.0000000000000000e+00
72 116       0.0000000000000000e+00
72 117       0.0000000000000000e+00
72 118       0.0000000000000000e+00
72 119       0.0000000000000000e+00
72 120       0.0000000000000000e+00
72 127       0.0000000000000000e+00
72 128       0.0000000000000000e+00
72 129       0.0000000000000000e+00
72 130       0.0000000000000000e+00
72 131       0.0000000000000000e+00
72 132       0.0000000000000000e+00
72 133       0.0000000000000000e+00
72 134       0.0000000000000000e+00
72 135       0.0000000000000000e+00
73 73       0.0000000000000000e+00
73 10       0.0000000000000000e+00
73 11       0.0000000000000000e+00
73 12       0.0000000000000000e+00
73 13       0.0000000000000000e+00
73 14       0.0000000000000000e+00
73 15       0.0000000000000000e+00
73 25       0.0000000000000000e+00
73 26       0.0000000000000000e+00
73 27       0.0000000000000000e+00
73 28       0.0000000000000000e+00
73 29       0.0000000000000000e+00
73 30       0.0000000000000000e+00
73 40       0.0000000000000000e+00
73 41       0.0000000000000000e+00
73 42       0.0000000000000000e+00
73 43       0.0000000000000000e+00
73 44       0.0000000000000000e+00
73 45       0.0000000000000000e+00
73 55       0.0000000000000000e+00
73 56       0.0000000000000000e+00
73 57       0.0000000000000000e+00
73 58       0.0000000000000000e+00
73 59       0.0000000000000000e+00
73 60       0.0000000000000000e+00
73 70       0.0000000000000000e+00
73 71       0.0000000000000000e+00
73 72       0.0000000000000000e+00
73 74       0.0000000000000000e+00
73 75       0.0000000000000000e+00
73 85       0.0000000000000000e+00
73 86       0.0000000000000000e+00
73 87       0.0000000000000000e+00
73 88       0.0000000000000000e+00
73 89       0.0000000000000000e+00
73 90       0.0000000000000000e+00
73 100       0.0000000000000000e+00
73 101       0.0000000000000000e+00
73 102       0.0000000000000000e+00
73 103       0.0000000000000000e+00
73 104       0.0000000000000000e+00
73 105       0.0000000000000000e+00
73 115       0.0000000000000000e+00
73 116       0.0000000000000000e+00
73 117       0.0000000000000000e+00
73 118       0.0000000000000000e+00
73 119       0.0000000000000000e+00
73 120       0.0000000000000000e+00
73 130       0.0000000000000000e+00
73 131       0.0000000000000000e+00
73 132       0.0000000000000000e+00
73 133       0.0000000000000000e+00
73 134       0.0000000000000000e+00
73 135       0.0000000000000000e+00
73 376       0.0000000000000000e+00
73 377       0.0000000000000000e+00
73 378       0.0000000000000000e+00
73 379       0.0000000000000000e+00
73 380       0.0000000000000000e+00
73 381       0.0000000000000000e+00
73 382       0.0000000000000000e+00
73 383       0.0000000000000000e+00
73 384       0.0000000000000000e+00
73 385       0.0000000000000000e+00
73 386       0.0000000000000000e+00
73 387       0.0000000000000000e+00
73 388       0.0000000000000000e+00
73 389       0.0000000000000000e+00
73 390       0.0000000000000000e+00
73 391       0.0000000000000000e+00
73 392       0.0000000000000000e+00
73 393       0.0000000000000000e+00
73 394       0.0000000000000000e+00
73 395       0.0000000000000000e+00
73 396       0.0000000000000000e+00
73 397       0.0000000000000000e+00
73 398       0.0000000000000000e+00
73 399       0.0000000000000000e+00
73 400       0.0000000000000000e+00
73 401       0.0000000000000000e+00
73 402       0.0000000000000000e+00
74 74       0.0000000000000000e+00
74 10       0.0000000000000000e+00
74 11       0.0000000000000000e+00
74 12       0.0000000000000000e+00
74 13       0.0000000000000000e+00
74 14       0.0000000000000000e+00
74 15       0.0000000000000000e+00
74 25       0.0000000000000000e+00
74 26       0.0000000000000000e+00
74 27       0.0000000000000000e+00
74 28       0.0000000000000000e+00
74 29       0.0000000000000000e+00
74 30       0.0000000000000000e+00
74 40       0.0000000000000000e+00
74 41       0.0000000000000000e+00
74 42       0.0000000000000000e+00
74 43       0.0000000000000000e+00
74 44       0.0000000000000000e+00
74 45       0.0000000000000000e+00
74 55       0.0000000000000000e+00
74 56       0.0000000000000000e+00
74 57       0.0000000000000000e+00
74 58       0.0000000000000000e+00
74 59       0.0000000000000000e+00
74 60       0.0000000000000000e+00
74 70       0.0000000000000000e+00
74 71       0.0000000000000000e+00
74 72       0.0000000000000000e+00
74 73       0.0000000000000000e+00
74 75       0.0000000000000000e+00
74 85       0.0000000000000000e+00
74 86       0.0000000000000000e+00
74 87       0.0000000000000000e+00
74 88       0.0000000000000000e+00
74 89       0.0000000000000000e+00
74 90       0.0000000000000000e+00
74 100       0.0000000000000000e+00
74 101       0.0000000000000000e+00
74 102       0.0000000000000000e+00
74 103       0.0000000000000000e+00
74 104       0.0000000000000000e+00
74 105       0.0000000000000000e+00
74 115       0.0000000000000000e+00
74 116       0.0000000000000000e+00
74 117       0.0000000000000000e+00
74 118       0.0000000000000000e+00
74 119       0.0000000000000000e+00
74 120       0.0000000000000000e+00
74 130       0.0000000000000000e+00
74 131       0.0000000000000000e+00
74 132       0.0000000000000000e+00
74 133       0.0000000000000000e+00
74 134       0.0000000000000000e+00
74 135       0.0000000000000000e+00
74 376       0.0000000000000000e+00
74 377       0.0000000000000000e+00
74 378       0.0000000000000000e+00
74 379       0.0000000000000000e+00
74 380       0.0000000000000000e+00
74 381       0.0000000000000000e+00
74 382       0.0000000000000000e+00
74 383       0.0000000000000000e+00
74 384       0.0000000000000000e+00
74 385       0.0000000000000000e+00
74 386       0.0000000000000000e+00
74 387       0.0000000000000000e+00
74 388       0.0000000000000000e+00
74 389       0.0000000000000000e+00
74 390       0.0000000000000000e+00
74 391       0.0000000000000000e+00
74 392       0.0000000000000000e+00
74 393       0.0000000000000000e+00
74 394       0.0000000000000000e+00
74 395       0.0000000000000000e+00
74 396       0.0000000000000000e+00
74 397       0.0000000000000000e+00
74 398       0.0000000000000000e+00
74 399       0.0000000000000000e+00
74 400       0.0000000000000000e+00
74 401       0.0000000000000000e+00
74 402       0.0000000000000000e+00
75 75       0.0000000000000000e+00
75 10       0.0000000000000000e+00
75 11       0.0000000000000000e+00
75 12       0.0000000000000000e+00
75 13       0.0000000000000000e+00
75 14       0.0000000000000000e+00
75 15       0.0000000000000000e+00
75 25       0.0000000000000000e+00
75 26       0.0000000000000000e+00
75 27       0.0000000000000000e+00
75 28       0.0000000000000000e+00
75 29       0.0000000000000000e+00
75 30       0.0000000000000000e+00
75 40       0.0000000000000000e+00
75 41       0.0000000000000000e+00
75 42       0.0000000000000000e+00
75 43       0.0000000000000000e+00
75 44       0.0000000000000000e+00
75 45       0.0000000000000000e+00
75 55       0.0000000000000000e+00
75 56       0.0000000000000000e+00
75 57       0.0000000000000000e+00
75 58       0.0000000000000000e+00
75 59       0.0000000000000000e+00
75 60       0.0000000000000000e+00
75 70       0.0000000000000000e+00
75 71       0.0000000000000000e+00
75 72       0.0000000000000000e+00
75 73       0.0000000000000000e+00
75 74       0.0000000000000000e+00
75 85       0.0000000000000000e+00
75 86       0.0000000000000000e+00
75 87       0.0000000000000000e+00
75 88       0.0000000000000000e+00
75 89       0.0000000000000000e+00
75 90       0.0000000000000000e+00
75 100       0.0000000000000000e+00
75 101       0.0000000000000000e+00
75 102       0.0000000000000000e+00
75 103       0.0000000000000000e+00
75 104       0.0000000000000000e+00
75 105       0.0000000000000000e+00
75 115       0.0000000000000000e+00
75 116       0.0000000000000000e+00
75 117       0.0000000000000000e+00
75 118       0.0000000000000000e+00
75 119       0.0000000000000000e+00
75 120       0.0000000000000000e+00
75 130       0.0000000000000000e+00
75 131       0.0000000000000000e+00
75 132       0.0000000000000000e+00
75 133       0.0000000000000000e+00
75 134       0.0000000000000000e+00
75 135       0.0000000000000000e+00
75 376       0.0000000000000000e+00
75 377       0.0000000000000000e+00
75 378       0.0000000000000000e+00
75 379       0.0000000000000000e+00
75 380       0.0000000000000000e+00
75 381       0.0000000000000000e+00
75 382       0.0000000000000000e+00
75 383       0.0000000000000000e+00
75 384       0.0000000000000000e+00
75 385       0.0000000000000000e+00
75 386       0.0000000000000000e+00
75 387       0.0000000000000000e+00
75 388       0.0000000000000000e+00
75 389       0.0000000000000000e+00
75 390       0.0000000000000000e+00
75 391       0.0000000000000000e+00
75 392       0.0000000000000000e+00
75 393       0.0000000000000000e+00
75 394       0.0000000000000000e+00
75 395       0.0000000000000000e+00
75 396       0.0000000000000000e+00
75 397       0.0000000000000000e+00
75 398       0.0000000000000000e+00
75 399       0.0000000000000000e+00
75 400       0.0000000000000000e+00
75 401       0.0000000000000000e+00
75 402       0.0000000000000000e+00
76 76       0.0000000000000000e+00
76 16       0.0000000000000000e+00
76 17       0.0000000000000000e+00
76 18       0.0000000000000000e+00
76 19       0.0000000000000000e+00
76 20       0.0000000000000000e+00
76 21       0.0000000000000000e+00
76 31       0.0000000000000000e+00
76 32       0.0000000000000000e+00
76 33       0.0000000000000000e+00
76 34       0.0000000000000000e+00
76 35       0.0000000000000000e+00
76 36       0.0000000000000000e+00
76 61       0.0000000000000000e+00
76 62       0.0000000000000000e+00
76 63       0.0000000000000000e+00
76 64       0.0000000000000000e+00
76 65       0.0000000000000000e+00
76 66       0.0000000000000000e+00
76 77       0.0000000000000000e+00
76 78       0.0000000000000000e+00
76 79       0.0000000000000000e+00
76 80       0.0000000000000000e+00
76 81       0.0000000000000000e+00
76 106       0.0000000000000000e+00
76 107       0.0000000000000000e+00
76 108       0.0000000000000000e+00
76 109       0.0000000000000000e+00
76 110       0.0000000000000000e+00
76 111       0.0000000000000000e+00
76 121       0.0000000000000000e+00
76 122       0.0000000000000000e+00
76 123       0.0000000000000000e+00
76 124       0.0000000000000000e+00
76 125       0.0000000000000000e+00
76 126       0.0000000000000000e+00
77 77       0.0000000000000000e+00
77 16       0.0000000000000000e+00
77 17       0.0000000000000000e+00
77 18       0.0000000000000000e+00
77 19       0.0000000000000000e+00
77 20       0.0000000000000000e+00
77 21       0.0000000000000000e+00
77 31       0.0000000000000000e+00
77 32       0.0000000000000000e+00
77 33       0.0000000000000000e+00
77 34       0.0000000000000000e+00
77 35       0.0000000000000000e+00
77 36       0.0000000000000000e+00
77 61       0.0000000000000000e+00
77 62       0.0000000000000000e+00
77 63       0.0000000000000000e+00
77 64       0.0000000000000000e+00
77 65       0.0000000000000000e+00
77 66       0.0000000000000000e+00
77 76       0.0000000000000000e+00
77 78       0.0000000000000000e+00
77 79       0.0000000000000000e+00
77 80       0.0000000000000000e+00
77 81       0.0000000000000000e+00
77 106       0.0000000000000000e+00
77 107       0.0000000000000000e+00
77 108       0.0000000000000000e+00
77 109       0.0000000000000000e+00
77 110       0.0000000000000000e+00
77 111       0.0000000000000000e+00
77 121       0.0000000000000000e+00
77 122       0.0000000000000000e+00
77 123       0.0000000000000000e+00
77 124       0.0000000000000000e+00
77 125       0.0000000000000000e+00
77 126       0.0000000000000000e+00
78 78       0.0000000000000000e+00
78 16       0.0000000000000000e+00
78 17       0.0000000000000000e+00
78 18       0.0000000000000000e+00
78 19       0.0000000000000000e+00
78 20       0.0000000000000000e+00
78 21       0.0000000000000000e+00
78 31       0.0000000000000000e+00
78 32       0.0000000000000000e+00
78 33       0.0000000000000000e+00
78 34       0.0000000000000000e+00
78 35       0.0000000000000000e+00
78 36       0.0000000000000000e+00
78 61       0.0000000000000000e+00
78 62       0.0000000000000000e+00
78 63       0.0000000000000000e+00
78 64       0.0000000000000000e+00
78 65       0.0000000000000000e+00
78 66       0.0000000000000000e+00
78 76       0.0000000000000000e+00
78 77       0.0000000000000000e+00
78 79       0.0000000000000000e+00
78 80       0.0000000000000000e+00
78 81       0.0000000000000000e+00
78 106       0.0000000000000000e+00
78 107       0.0000000000000000e+00
78 108       0.0000000000000000e+00
78 109       0.0000000000000000e+00
78 110       0.0000000000000000e+00
78 111       0.0000000000000000e+00
78 121       0.0000000000000000e+00
78 122       0.0000000000000000e+00
78 123       0.0000000000000000e+00
78 124       0.0000000000000000e+00
78 125       0.0000000000000000e+00
78 126       0.0000000000000000e+00
79 79       0.0000000000000000e+00
79 16       0.0000000000000000e+00
79 17       0.0000000000000000e+00
79 18       0.0000000000000000e+00
79 19       0.0000000000000000e+00
79 20       0.0000000000000000e+00
79 21       0.0000000000000000e+00
79 22       0.0000000000000000e+00
79 23       0.0000000000000000e+00
79 24       0.0000000000000000e+00
79 31       0.0000000000000000e+00
79 32       0.0000000000000000e+00
79 33       0.0000000000000000e+00
79 34       0.0000000000000000e+00
79 35       0.0000000000000000e+00
79 36       0.0000000000000000e+00
79 37       0.0000000000000000e+00
79 38       0.0000000000000000e+00
79 39       0.0000000000000000e+00
79 61       0.0000000000000000e+00
79 62       0.0000000000000000e+00
79 63       0.0000000000000000e+00
79 64       0.0000000000000000e+00
79 65       0.0000000000000000e+00
79 66       0.0000000000000000e+00
79 67       0.0000000000000000e+00
79 68       0.0000000000000000e+00
79 69       0.0000000000000000e+00
79 76       0.0000000000000000e+00
79 77       0.0000000000000000e+00
79 78       0.0000000000000000e+00
79 80       0.0000000000000000e+00
79 81       0.0000000000000000e+00
79 82       0.0000000000000000e+00
79 83       0.0000000000000000e+00
79 84       0.0000000000000000e+00
79 106       0.0000000000000000e+00
79 107       0.0000000000000000e+00
79 108       0.0000000000000000e+00
79 109       0.0000000000000000e+00
79 110       0.0000000000000000e+00
79 111       0.0000000000000000e+00
79 112       0.0000000000000000e+00
79 113       0.0000000000000000e+00
79 114       0.0000000000000000e+00
79 121       0.0000000000000000e+00
79 122       0.0000000000000000e+00
79 123       0.0000000000000000e+00
79 124       0.0000000000000000e+00
79 125       0.0000000000000000e+00
79 126       0.0000000000000000e+00
79 127       0.0000000000000000e+00
79 128       0.0000000000000000e+00
79 129       0.0000000000000000e+00
80 80       0.0000000000000000e+00
80 16       0.0000000000000000e+00
80 17       0.0000000000000000e+00
80 18       0.0000000000000000e+00
80 19       0.0000000000000000e+00
80 20       0.0000000000000000e+00
80 21       0.0000000000000000e+00
80 22       0.0000000000000000e+00
80 23       0.0000000000000000e+00
80 24       0.0000000000000000e+00
80 31       0.0000000000000000e+00
80 32       0.0000000000000000e+00
80 33       0.0000000000000000e+00
80 34       0.0000000000000000e+00
80 35       0.0000000000000000e+00
80 36       0.0000000000000000e+00
80 37       0.0000000000000000e+00
80 38       0.0000000000000000e+00
80 39       0.0000000000000000e+00
80 61       0.0000000000000000e+00
80 62       0.0000000000000000e+00
80 63       0.0000000000000000e+00
80 64       0.0000000000000000e+00
80 65       0.0000000000000000e+00
80 66       0.0000000000000000e+00
80 67       0.0000000000000000e+00
80 68       0.0000000000000000e+00
80 69       0.0000000000000000e+00
80 76       0.0000000000000000e+00
80 77       0.0000000000000000e+00
80 78       0.0000000000000000e+00
80 79       0.0000000000000000e+00
80 81       0.0000000000000000e+00
80 82       0.0000000000000000e+00
80 83       0.0000000000000000e+00
80 84       0.0000000000000000e+00
80 106       0.0000000000000000e+00
80 107       0.0000000000000000e+00
80 108       0.0000000000000000e+00
80 109       0.0000000000000000e+00
80 110       0.0000000000000000e+00
80 111       0.0000000000000000e+00
80 112       0.0000000000000000e+00
80 113       0.0000000000000000e+00
80 114       0.0000000000000000e+00
80 121       0.0000000000000000e+00
80 122       0.0000000000000000e+00
80 123       0.0000000000000000e+00
80 124       0.0000000000000000e+00
80 125       0.0000000000000000e+00
80 126       0.0000000000000000e+00
80 127       0.0000000000000000e+00
80 128       0.0000000000000000e+00
80 129       0.0000000000000000e+00
81 81       0.0000000000000000e+00
81 16       0.0000000000000000e+00
81 17       0.0000000000000000e+00
81 18       0.0000000000000000e+00
81 19       0.0000000000000000e+00
81 20       0.0000000000000000e+00
81 21       0.0000000000000000e+00
81 22       0.0000000000000000e+00
81 23       0.0000000000000000e+00
81 24       0.0000000000000000e+00
81 31       0.0000000000000000e+00
81 32       0.0000000000000000e+00
81 33       0.0000000000000000e+00
81 34       0.0000000000000000e+00
81 35       0.0000000000000000e+00
81 36       0.0000000000000000e+00
81 37       0.0000000000000000e+00
81 38       0.0000000000000000e+00
81 39       0.0000000000000000e+00
81 61       0.0000000000000000e+00
81 62       0.0000000000000000e+00
81 63       0.0000000000000000e+00
81 64       0.0000000000000000e+00
81 65       0.0000000000000000e+00
81 66       0.0000000000000000e+00
81 67       0.0000000000000000e+00
81 68       0.0000000000000000e+00
81 69       0.0000000000000000e+00
81 76       0.0000000000000000e+00
81 77       0.0000000000000000e+00
81 78       0.0000000000000000e+00
81 79       0.0000000000000000e+00
81 80       0.0000000000000000e+00
81 82       0.0000000000000000e+00
81 83       0.0000000000000000e+00
81 84       0.0000000000000000e+00
81 106       0.0000000000000000e+00
81 107       0.0000000000000000e+00
81 108       0.0000000000000000e+00
81 109       0.0000000000000000e+00
81 110       0.0000000000000000e+00
81 111       0.0000000000000000e+00
81 112       0.0000000000000000e+00
81 113       0.0000000000000000e+00
81 114       0.0000000000000000e+00
81 121       0.0000000000000000e+00
81 122       0.0000000000000000e+00
81 123       0.0000000000000000e+00
81 124       0.0000000000000000e+00
81 125       0.0000000000000000e+00
81 126       0.0000000000000000e+00
81 127       0.0000000000000000e+00
81 128       0.0000000000000000e+00
81 129       0.0000000000000000e+00
82 82       0.0000000000000000e+00
82 19       0.0000000000000000e+00
82 20       0.0000000000000000e+00
82 21       0.0000000000000000e+00
82 22       0.0000000000000000e+00
82 23       0.0000000000000000e+00
82 24       0.0000000000000000e+00
82 25       0.0000000000000000e+00
82 26       0.0000000000000000e+00
82 27       0.0000000000000000e+00
82 34       0.0000000000000000e+00
82 35       0.0000000000000000e+00
82 36       0.0000000000000000e+00
82 37       0.0000000000000000e+00
82 38       0.0000000000000000e+00
82 39       0.0000000000000000e+00
82 40       0.0000000000000000e+00
82 41       0.0000000000000000e+00
82 42       0.0000000000000000e+00
82 64       0.0000000000000000e+00
82 65       0.0000000000000000e+00
82 66       0.0000000000000000e+00
82 67       0.0000000000000000e+00
82 68       0.0000000000000000e+00
82 69       0.0000000000000000e+00
82 70       0.0000000000000000e+00
82 71       0.0000000000000000e+00
82 72       0.0000000000000000e+00
82 79       0.0000000000000000e+00
82 80       0.0000000000000000e+00
82 81       0.0000000000000000e+00
82 83       0.0000000000000000e+00
82 84       0.0000000000000000e+00
82 85       0.0000000000000000e+00
82 86       0.0000000000000000e+00
82 87       0.0000000000000000e+00
82 109       0.0000000000000000e+00
82 110       0.0000000000000000e+00
82 111       0.0000000000000000e+00
82 112       0.0000000000000000e+00
82 113       0.0000000000000000e+00
82 114       0.0000000000000000e+00
82 115       0.0000000000000000e+00
82 116       0.0000000000000000e+00
82 117       0.0000000000000000e+00
82 124       0.0000000000000000e+00
82 125       0.0000000000000000e+00
82 126       0.0000000000000000e+00
82 127       0.0000000000000000e+00
82 128       0.0000000000000000e+00
82 129       0.0000000000000000e+00
82 130       0.0000000000000000e+00
82 131       0.0000000000000000e+00
82 132       0.0000000000000000e+00
83 83       0.0000000000000000e+00
83 19       0.0000000000000000e+00
83 20       0.0000000000000000e+00
83 21       0.0000000000000000e+00
83 22       0.0000000000000000e+00
83 23       0.0000000000000000e+00
83 24       0.0000000000000000e+00
83 25       0.0000000000000000e+00
83 26       0.0000000000000000e+00
83 27       0.0000000000000000e+00
83 34       0.0000000000000000e+00
83 35       0.0000000000000000e+00
83 36       0.0000000000000000e+00
83 37       0.0000000000000000e+00
83 38       0.0000000000000000e+00
83 39       0.0000000000000000e+00
83 40       0.0000000000000000e+00
83 41       0.0000000000000000e+00
83 42       0.0000000000000000e+00
83 64       0.0000000000000000e+00
83 65       0.0000000000000000e+00
83 66       0.0000000000000000e+00
83 67       0.0000000000000000e+00
83 68       0.0000000000000000e+00
83 69       0.0000000000000000e+00
83 70       0.0000000000000000e+00
83 71       0.0000000000000000e+00
83 72       0.0000000000000000e+00
83 79       0.0000000000000000e+00
83 80       0.0000000000000000e+00
83 81       0.0000000000000000e+00
83 82       0.0000000000000000e+00
83 84       0.0000000000000000e+00
83 85       0.0000000000000000e+00
83 86       0.0000000000000000e+00
83 87       0.0000000000000000e+00
83 109       0.0000000000000000e+00
83 110       0.0000000000000000e+00
83 111       0.0000000000000000e+00
83 112       0.0000000000000000e+00
83 113       0.0000000000000000e+00
83 114       0.0000000000000000e+00
83 115       0.0000000000000000e+00
83 116       0.0000000000000000e+00
83 117       0.0000000000000000e+00
83 124       0.0000000000000000e+00
83 125       0.0000000000000000e+00
83 126       0.0000000000000000e+00
83 127       0.0000000000000000e+00
83 128       0.0000000000000000e+00
83 129       0.0000000000000000e+00
83 130       0.0000000000000000e+00
83 131       0.0000000000000000e+00
83 132       0.0000000000000000e+00
84 84       0.0000000000000000e+00
84 19       0.0000000000000000e+00
84 20       0.0000000000000000e+00
84 21       0.0000000000000000e+00
84 22       0.0000000000000000e+00
84 23       0.0000000000000000e+00
84 24       0.0000000000000000e+00
84 25       0.0000000000000000e+00
84 26       0.0000000000000000e+00
84 27       0.0000000000000000e+00
84 34       0.0000000000000000e+00
84 35       0.0000000000000000e+00
84 36       0.0000000000000000e+00
84 37       0.0000000000000000e+00
84 38       0.0000000000000000e+00
84 39       0.0000000000000000e+00
84 40       0.0000000000000000e+00
84 41       0.0000000000000000e+00
84 42       0.0000000000000000e+00
84 64       0.0000000000000000e+00
84 65       0.0000000000000000e+00
84 66       0.0000000000000000e+00
84 67       0.0000000000000000e+00
84 68       0.0000000000000000e+00
84 69       0.0000000000000000e+00
84 70       0.0000000000000000e+00
84 71       0.0000000000000000e+00
84 72       0.0000000000000000e+00
84 79       0.0000000000000000e+00
84 80       0.0000000000000000e+00
84 81       0.0000000000000000e+00
84 82       0.0000000000000000e+00
84 83       0.0000000000000000e+00
84 85       0.0000000000000000e+00
84 86       0.0000000000000000e+00
84 87       0.0000000000000000e+00
84 109       0.0000000000000000e+00
84 110       0.0000000000000000e+00
84 111       0.0000000000000000e+00
84 112       0.0000000000000000e+00
84 113       0.0000000000000000e+00
84 114       0.0000000000000000e+00
84 115       0.0000000000000000e+00
84 116       0.0000000000000000e+00
84 117       0.0000000000000000e+00
84 124       0.0000000000000000e+00
84 125       0.0000000000000000e+00
84 126       0.0000000000000000e+00
84 127       0.0000000000000000e+00
84 128       0.0000000000000000e+00
84 129       0.0000000000000000e+00
84 130       0.0000000000000000e+00
84 131       0.0000000000000000e+00
84 132       0.0000000000000000e+00
85 85       0.0000000000000000e+00
85 22       0.0000000000000000e+00
85 23       0.0000000000000000e+00
85 24       0.0000000000000000e+00
85 25       0.0000000000000000e+00
85 26       0.0000000000000000e+00
85 27       0.0000000000000000e+00
85 28       0.0000000000000000e+00
85 29       0.0000000000000000e+00
85 30       0.0000000000000000e+00
85 37       0.0000000000000000e+00
85 38       0.0000000000000000e+00
85 39       0.0000000000000000e+00
85 40       0.0000000000000000e+00
85 41       0.0000000000000000e+00
85 42       0.0000000000000000e+00
85 43       0.0000000000000000e+00
85 44       0.0000000000000000e+00
85 45       0.0000000000000000e+00
85 67       0.0000000000000000e+00
85 68       0.0000000000000000e+00
85 69       0.0000000000000000e+00
85 70       0.0000000000000000e+00
85 71       0.0000000000000000e+00
85 72       0.0000000000000000e+00
85 73       0.0000000000000000e+00
85 74       0.0000000000000000e+00
85 75       0.0000000000000000e+00
85 82       0.0000000000000000e+00
85 83       0.0000000000000000e+00
85 84       0.0000000000000000e+00
85 86       0.0000000000000000e+00
85 87       0.0000000000000000e+00
85 88       0.0000000000000000e+00
85 89       0.0000000000000000e+00
85 90       0.0000000000000000e+00
85 112       0.0000000000000000e+00
85 113       0.0000000000000000e+00
85 114       0.0000000000000000e+00
85 115       0.0000000000000000e+00
85 116       0.0000000000000000e+00
85 117       0.0000000000000000e+00
85 118       0.0000000000000000e+00
85 119       0.0000000000000000e+00
85 120       0.0000000000000000e+00
85 127       0.0000000000000000e+00
85 128       0.0000000000000000e+00
85 129       0.0000000000000000e+00
85 130       0.0000000000000000e+00
85 131       0.0000000000000000e+00
85 132       0.0000000000000000e+00
85 133       0.0000000000000000e+00
85 134       0.0000000000000000e+00
85 135       0.0000000000000000e+00
86 86       0.0000000000000000e+00
86 22       0.0000000000000000e+00
86 23       0.0000000000000000e+00
86 24       0.0000000000000000e+00
86 25       0.0000000000000000e+00
86 26       0.0000000000000000e+00
86 27       0.0000000000000000e+00
86 28       0.0000000000000000e+00
86 29       0.0000000000000000e+00
86 30       0.0000000000000000e+00
86 37       0.0000000000000000e+00
86 38       0.0000000000000000e+00
86 39       0.0000000000000000e+00
86 40       0.0000000000000000e+00
86 41       0.0000000000000000e+00
86 42       0.0000000000000000e+00
86 43       0.0000000000000000e+00
86 44       0.0000000000000000e+00
86 45       0.0000000000000000e+00
86 67       0.0000000000000000e+00
86 68       0.0000000000000000e+00
86 69       0.0000000000000000e+00
86 70       0.0000000000000000e+00
86 71       0.0000000000000000e+00
86 72       0.0000000000000000e+00
86 73       0.0000000000000000e+00
86 74       0.0000000000000000e+00
86 75       0.0000000000000000e+00
86 82       0.0000000000000000e+00
86 83       0.0000000000000000e+00
86 84       0.0000000000000000e+00
86 85       0.0000000000000000e+00
86 87       0.0000000000000000e+00
86 88       0.0000000000000000e+00
86 89       0.0000000000000000e+00
86 90       0.0000000000000000e+00
86 112       0.0000000000000000e+00
86 113       0.0000000000000000e+00
86 114       0.0000000000000000e+00
86 115       0.0000000000000000e+00
86 116       0.0000000000000000e+00
86 117       0.0000000000000000e+00
86 118       0.0000000000000000e+00
86 119       0.0000000000000000e+00
86 120       0.0000000000000000e+00
86 127       0.0000000000000000e+00
86 128       0.0000000000000000e+00
86 129       0.0000000000000000e+00
86 130       0.0000000000000000e+00
86 131       0.0000000000000000e+00
86 132       0.0000000000000000e+00
86 133       0.0000000000000000e+00
86 134       0.0000000000000000e+00
86 135       0.0000000000000000e+00
87 87       0.0000000000000000e+00
87 22       0.0000000000000000e+00
87 23       0.0000000000000000e+00
87 24       0.0000000000000000e+00
87 25       0.0000000000000000e+00
87 26       0.0000000000000000e+00
87 27       0.0000000000000000e+00
87 28       0.0000000000000000e+00
87 29       0.0000000000000000e+00
87 30       0.0000000000000000e+00
87 37       0.0000000000000000e+00
87 38       0.0000000000000000e+00
87 39       0.0000000000000000e+00
87 40       0.0000000000000000e+00
87 41       0.0000000000000000e+00
87 42       0.0000000000000000e+00
87 43       0.0000000000000000e+00
87 44       0.0000000000000000e+00
87 45       0.0000000000000000e+00
87 67       0.0000000000000000e+00
87 68       0.0000000000000000e+00
87 69       0.0000000000000000e+00
87 70       0.0000000000000000e+00
87 71       0.0000000000000000e+00
87 72       0.0000000000000000e+00
87 73       0.0000000000000000e+00
87 74       0.0000000000000000e+00
87 75       0.0000000000000000e+00
87 82       0.0000000000000000e+00
87 83       0.0000000000000000e+00
87 84       0.0000000000000000e+00
87 85       0.0000000000000000e+00
87 86       0.0000000000000000e+00
87 88       0.0000000000000000e+00
87 89       0.0000000000000000e+00
87 90       0.0000000000000000e+00
87 112       0.0000000000000000e+00
87 113       0.0000000000000000e+00
87 114       0.0000000000000000e+00
87 115       0.0000000000000000e+00
87 116       0.0000000000000000e+00
87 117       0.0000000000000000e+00
87 118       0.0000000000000000e+00
87 119       0.0000000000000000e+00
87 120       0.0000000000000000e+00
87 127       0.0000000000000000e+00
87 128       0.0000000000000000e+00
87 129       0.0000000000000000e+00
87 130       0.0000000000000000e+00
87 131       0.0000000000000000e+00
87 132       0.0000000000000000e+00
87 133       0.0000000000000000e+00
87 134       0.0000000000000000e+00
87 135       0.0000000000000000e+00
88 88       0.0000000000000000e+00
88 25       0.0000000000000000e+00
88 26       0.0000000000000000e+00
88 27       0.0000000000000000e+00
88 28       0.0000000000000000e+00
88 29       0.0000000000000000e+00
88 30       0.0000000000000000e+00
88 40       0.0000000000000000e+00
88 41       0.0000000000000000e+00
88 42       0.0000000000000000e+00
88 43       0.0000000000000000e+00
88 44       0.0000000000000000e+00
88 45       0.0000000000000000e+00
88 70       0.0000000000000000e+00
88 71       0.0000000000000000e+00
88 72       0.0000000000000000e+00
88 73       0.0000000000000000e+00
88 74       0.0000000000000000e+00
88 75       0.0000000000000000e+00
88 85       0.0000000000000000e+00
88 86       0.0000000000000000e+00
88 87       0.0000000000000000e+00
88 89       0.0000000000000000e+00
88 90       0.0000000000000000e+00
88 115       0.0000000000000000e+00
88 116       0.0000000000000000e+00
88 117       0.0000000000000000e+00
88 118       0.0000000000000000e+00
88 119       0.0000000000000000e+00
88 120       0.0000000000000000e+00
88 130       0.0000000000000000e+00
88 131       0.0000000000000000e+00
88 132       0.0000000000000000e+00
88 133       0.0000000000000000e+00
88 134       0.0000000000000000e+00
88 135       0.0000000000000000e+00
88 379       0.0000000000000000e+00
88 380       0.0000000000000000e+00
88 381       0.0000000000000000e+00
88 382       0.0000000000000000e+00
88 383       0.0000000000000000e+00
88 384       0.0000000000000000e+00
88 388       0.0000000000000000e+00
88 389       0.0000000000000000e+00
88 390       0.0000000000000000e+00
88 391       0.0000000000000000e+00
88 392       0.0000000000000000e+00
88 393       0.0000000000000000e+00
88 397       0.0000000000000000e+00
88 398       0.0000000000000000e+00
88 399       0.0000000000000000e+00
88 400       0.0000000000000000e+00
88 401       0.0000000000000000e+00
88 402       0.0000000000000000e+00
89 89       0.0000000000000000e+00
89 25       0.0000000000000000e+00
89 26       0.0000000000000000e+00
89 27       0.0000000000000000e+00
89 28       0.0000000000000000e+00
89 29       0.0000000000000000e+00
89 30       0.0000000000000000e+00
89 40       0.0000000000000000e+00
89 41       0.0000000000000000e+00
89 42       0.0000000000000000e+00
89 43       0.0000000000000000e+00
89 44       0.0000000000000000e+00
89 45       0.0000000000000000e+00
89 70       0.0000000000000000e+00
89 71       0.0000000000000000e+00
89 72       0.0000000000000000e+00
89 73       0.0000000000000000e+00
89 74       0.0000000000000000e+00
89 75       0.0000000000000000e+00
89 85       0.0000000000000000e+00
89 86       0.0000000000000000e+00
89 87       0.0000000000000000e+00
89 88       0.0000000000000000e+00
89 90       0.0000000000000000e+00
89 115       0.0000000000000000e+00
89 116       0.0000000000000000e+00
89 117       0.0000000000000000e+00
89 118       0.0000000000000000e+00
89 119       0.0000000000000000e+00
89 120       0.0000000000000000e+00
89 130       0.0000000000000000e+00
89 131       0.0000000000000000e+00
89 132       0.0000000000000000e+00
89 133       0.0000000000000000e+00
89 134       0.0000000000000000e+00
89 135       0.0000000000000000e+00
89 379       0.0000000000000000e+00
89 380       0.0000000000000000e+00
89 381       0.0000000000000000e+00
89 382       0.0000000000000000e+00
89 383       0.0000000000000000e+00
89 384       0.0000000000000000e+00
89 388       0.0000000000000000e+00
89 389       0.0000000000000000e+00
89 390       0.0000000000000000e+00
89 391       0.0000000000000000e+00
89 392       0.0000000000000000e+00
89 393       0.0000000000000000e+00
89 397       0.0000000000000000e+00
89 398       0.0000000000000000e+00
89 399       0.0000000000000000e+00
89 400       0.0000000000000000e+00
89 401       0.0000000000000000e+00
89 402       0.0000000000000000e+00
90 90       0.0000000000000000e+00
90 25       0.0000000000000000e+00
90 26       0.0000000000000000e+00
90 27       0.0000000000000000e+00
90 28       0.0000000000000000e+00
90 29       0.0000000000000000e+00
90 30       0.0000000000000000e+00
90 40       0.0000000000000000e+00
90 41       0.0000000000000000e+00
90 42       0.0000000000000000e+00
90 43       0.0000000000000000e+00
90 44       0.0000000000000000e+00
90 45       0.0000000000000000e+00
90 70       0.0000000000000000e+00
90 71       0.0000000000000000e+00
90 72       0.0000000000000000e+00
90 73       0.0000000000000000e+00
90 74       0.0000000000000000e+00
90 75       0.0000000000000000e+00
90 85       0.0000000000000000e+00
90 86       0.0000000000000000e+00
90 87       0.0000000000000000e+00
90 88       0.0000000000000000e+00
90 89       0.0000000000000000e+00
90 115       0.0000000000000000e+00
90 116       0.0000000000000000e+00
90 117       0.0000000000000000e+00
90 118       0.0000000000000000e+00
90 119       0.0000000000000000e+00
90 120       0.0000000000000000e+00
90 130       0.0000000000000000e+00
90 131       0.0000000000000000e+00
90 132       0.0000000000000000e+00
90 133       0.0000000000000000e+00
90 134       0.0000000000000000e+00
90 135       0.0000000000000000e+00
90 379       0.0000000000000000e+00
90 380       0.0000000000000000e+00
90 381       0.0000000000000000e+00
90 382       0.0000000000000000e+00
90 383       0.0000000000000000e+00
90 384       0.0000000000000000e+00
90 388       0.0000000000000000e+00
90 389       0.0000000000000000e+00
90 390       0.0000000000000000e+00
90 391       0.0000000000000000e+00
90 392       0.0000000000000000e+00
90 393       0.0000000000000000e+00
90 397       0.0000000000000000e+00
90 398       0.0000000000000000e+00
90 399       0.0000000000000000e+00
90 400       0.0000000000000000e+00
90 401       0.0000000000000000e+00
90 402       0.0000000000000000e+00
91 91       0.0000000000000000e+00
91 46       0.0000000000000000e+00
91 47       0.0000000000000000e+00
91 48       0.0000000000000000e+00
91 49       0.0000000000000000e+00
91 50       0.0000000000000000e+00
91 51       0.0000000000000000e+00
91 61       0.0000000000000000e+00
91 62       0.0000000000000000e+00
91 63       0.0000000000000000e+00
91 64       0.0000000000000000e+00
91 65       0.0000000000000000e+00
91 66       0.0000000000000000e+00
91 92       0.0000000000000000e+00
91 93       0.0000000000000000e+00
91 94       0.0000000000000000e+00
91 95       0.0000000000000000e+00
91 96       0.0000000000000000e+00
91 106       0.0000000000000000e+00
91 107       0.0000000000000000e+00
91 108       0.0000000000000000e+00
91 109       0.0000000000000000e+00
91 110       0.0000000000000000e+00
91 111       0.0000000000000000e+00
92 92       0.0000000000000000e+00
92 46       0.0000000000000000e+00
92 47       0.0000000000000000e+00
92 48       0.0000000000000000e+00
92 49       0.0000000000000000e+00
92 50       0.0000000000000000e+00
92 51       0.0000000000000000e+00
92 61       0.0000000000000000e+00
92 62       0.0000000000000000e+00
92 63       0.0000000000000000e+00
92 64       0.0000000000000000e+00
92 65       0.0000000000000000e+00
92 66       0.0000000000000000e+00
92 91       0.0000000000000000e+00
92 93       0.0000000000000000e+00
92 94       0.0000000000000000e+00
92 95       0.0000000000000000e+00
92 96       0.0000000000000000e+00
92 106       0.0000000000000000e+00
92 107       0.0000000000000000e+00
92 108       0.0000000000000000e+00
92 109       0.0000000000000000e+00
92 110       0.0000000000000000e+00
92 111       0.0000000000000000e+00
93 93       0.0000000000000000e+00
93 46       0.0000000000000000e+00
93 47       0.0000000000000000e+00
93 48       0.0000000000000000e+00
93 49       0.0000000000000000e+00
93 50       0.0000000000000000e+00
93 51       0.0000000000000000e+00
93 61       0.0000000000000000e+00
93 62       0.0000000000000000e+00
93 63       0.0000000000000000e+00
93 64       0.0000000000000000e+00
93 65       0.0000000000000000e+00
93 66       0.0000000000000000e+00
93 91       0.0000000000000000e+00
93 92       0.0000000000000000e+00
93 94       0.0000000000000000e+00
93 95       0.0000000000000000e+00
93 96       0.0000000000000000e+00
93 106       0.0000000000000000e+00
93 107       0.0000000000000000e+00
93 108       0.0000000000000000e+00
93 109       0.0000000000000000e+00
93 110       0.0000000000000000e+00
93 111       0.0000000000000000e+00
94 94       0.0000000000000000e+00
94 46       0.0000000000000000e+00
94 47       0.0000000000000000e+00
94 48       0.0000000000000000e+00
94 49       0.0000000000000000e+00
94 50       0.0000000000000000e+00
94 51       0.0000000000000000e+00
94 52       0.0000000000000000e+00
94 53       0.0000000000000000e+00
94 54       0.0000000000000000e+00
94 61       0.0000000000000000e+00
94 62       0.0000000000000000e+00
94 63       0.0000000000000000e+00
94 64       0.0000000000000000e+00
94 65       0.0000000000000000e+00
94 66       0.0000000000000000e+00
94 67       0.0000000000000000e+00
94 68       0.0000000000000000e+00
94 69       0.0000000000000000e+00
94 91       0.0000000000000000e+00
94 92       0.0000000000000000e+00
94 93       0.0000000000000000e+00
94 95       0.0000000000000000e+00
94 96       0.0000000000000000e+00
94 97       0.0000000000000000e+00
94 98       0.0000000000000000e+00
94 99       0.0000000000000000e+00
94 106       0.0000000000000000e+00
94 107       0.0000000000000000e+00
94 108       0.0000000000000000e+00
94 109       0.0000000000000000e+00
94 110       0.0000000000000000e+00
94 111       0.0000000000000000e+00
94 112       0.0000000000000000e+00
94 113       0.0000000000000000e+00
94 114       0.0000000000000000e+00
95 95       0.0000000000000000e+00
95 46       0.0000000000000000e+00
95 47       0.0000000000000000e+00
95 48       0.0000000000000000e+00
95 49       0.0000000000000000e+00
95 50       0.0000000000000000e+00
95 51       0.0000000000000000e+00
95 52       0.0000000000000000e+00
95 53       0.0000000000000000e+00
95 54       0.0000000000000000e+00
95 61       0.0000000000000000e+00
95 62       0.0000000000000000e+00
95 63       0.0000000000000000e+00
95 64       0.0000000000000000e+00
95 65       0.0000000000000000e+00
95 66       0.0000000000000000e+00
95 67       0.0000000000000000e+00
95 68       0.0000000000000000e+00
95 69       0.0000000000000000e+00
95 91       0.0000000000000000e+00
95 92       0.0000000000000000e+00
95 93       0.0000000000000000e+00
95 94       0.0000000000000000e+00
95 96       0.0000000000000000e+00
95 97       0.0000000000000000e+00
95 98       0.0000000000000000e+00
95 99       0.0000000000000000e+00
95 106       0.0000000000000000e+00
95 107       0.0000000000000000e+00
95 108       0.0000000000000000e+00
95 109       0.0000000000000000e+00
95 110       0.0000000000000000e+00
95 111       0.0000000000000000e+00
95 112       0.0000000000000000e+00
95 113       0.0000000000000000e+00
95 114       0.0000000000000000e+00
96 96       0.0000000000000000e+00
96 46       0.0000000000000000e+00
96 47       0.0000000000000000e+00
96 48       0.0000000000000000e+00
96 49       0.0000000000000000e+00
96 50       0.0000000000000000e+00
96 51       0.0000000000000000e+00
96 52       0.0000000000000000e+00
96 53       0.0000000000000000e+00
96 54       0.0000000000000000e+00
96 61       0.0000000000000000e+00
96 62       0.0000000000000000e+00
96 63       0.0000000000000000e+00
96 64       0.0000000000000000e+00
96 65       0.0000000000000000e+00
96 66       0.0000000000000000e+00
96 67       0.0000000000000000e+00
96 68       0.0000000000000000e+00
96 69       0.0000000000000000e+00
96 91       0.0000000000000000e+00
96 92       0.0000000000000000e+00
96 93       0.0000000000000000e+00
96 94       0.0000000000000000e+00
96 95       0.0000000000000000e+00
96 97       0.0000000000000000e+00
96 98       0.0000000000000000e+00
96 99       0.0000000000000000e+00
96 106       0.0000000000000000e+00
96 107       0.0000000000000000e+00
96 108       0.0000000000000000e+00
96 109       0.0000000000000000e+00
96 110       0.0000000000000000e+00
96 111       0.0000000000000000e+00
96 112       0.0000000000000000e+00
96 113       0.0000000000000000e+00
96 114       0.0000000000000000e+00
97 97       0.0000000000000000e+00
97 49       0.0000000000000000e+00
97 50       0.0000000000000000e+00
97 51       0.0000000000000000e+00
97 52       0.0000000000000000e+00
97 53       0.0000000000000000e+00
97 54       0.0000000000000000e+00
97 55       0.0000000000000000e+00
97 56       0.0000000000000000e+00
97 57       0.0000000000000000e+00
97 64       0.0000000000000000e+00
97 65       0.0000000000000000e+00
97 66       0.0000000000000000e+00
97 67       0.0000000000000000e+00
97 68       0.0000000000000000e+00
97 69       0.0000000000000000e+00
97 70       0.0000000000000000e+00
97 71       0.0000000000000000e+00
97 72       0.0000000000000000e+00
97 94       0.0000000000000000e+00
97 95       0.0000000000000000e+00
97 96       0.0000000000000000e+00
97 98       0.0000000000000000e+00
97 99       0.0000000000000000e+00
97 100       0.0000000000000000e+00
97 101       0.0000000000000000e+00
97 102       0.0000000000000000e+00
97 109       0.0000000000000000e+00
97 110       0.0000000000000000e+00
97 111       0.0000000000000000e+00
97 112       0.0000000000000000e+00
97 113       0.0000000000000000e+00
97 114       0.0000000000000000e+00
97 115       0.0000000000000000e+00
97 116       0.0000000000000000e+00
97 117       0.0000000000000000e+00
98 98       0.0000000000000000e+00
98 49       0.0000000000000000e+00
98 50       0.0000000000000000e+00
98 51       0.0000000000000000e+00
98 52       0.0000000000000000e+00
98 53       0.0000000000000000e+00
98 54       0.0000000000000000e+00
98 55       0.0000000000000000e+00
98 56       0.0000000000000000e+00
98 57       0.0000000000000000e+00
98 64       0.0000000000000000e+00
98 65       0.0000000000000000e+00
98 66       0.0000000000000000e+00
98 67       0.0000000000000000e+00
98 68       0.0000000000000000e+00
98 69       0.0000000000000000e+00
98 70       0.0000000000000000e+00
98 71       0.0000000000000000e+00
98 72       0.0000000000000000e+00
98 94       0.0000000000000000e+00
98 95       0.0000000000000000e+00
98 96       0.0000000000000000e+00
98 97       0.0000000000000000e+00
98 99       0.0000000000000000e+00
98 100       0.0000000000000000e+00
98 101       0.0000000000000000e+00
98 102       0.0000000000000000e+00
98 109       0.0000000000000000e+00
98 110       0.0000000000000000e+00
98 111       0.0000000000000000e+00
98 112       0.0000000000000000e+00
98 113       0.0000000000000000e+00
98 114       0.0000000000000000e+00
98 115       0.0000000000000000e+00
98 116       0.0000000000000000e+00
98 117       0.0000000000000000e+00
99 99       0.0000000000000000e+00
99 49       0.0000000000000000e+00
99 50       0.0000000000000000e+00
99 51       0.0000000000000000e+00
99 52       0.0000000000000000e+00
99 53       0.0000000000000000e+00
99 54       0.0000000000000000e+00
99 55       0.0000000000000000e+00
99 56       0.0000000000000000e+00
99 57       0.0000000000000000e+00
99 64       0.0000000000000000e+00
99 65       0.0000000000000000e+00
99 66       0.0000000000000000e+00
99 67       0.0000000000000000e+00
99 68       0.0000000000000000e+00
99 69       0.0000000000000000e+00
99 70       0.0000000000000000e+00
99 71       0.0000000000000000e+00
99 72       0.0000000000000000e+00
99 94       0.0000000000000000e+00
99 95       0.0000000000000000e+00
99 96       0.0000000000000000e+00
99 97       0.0000000000000000e+00
99 98       0.0000000000000000e+00
99 100       0.0000000000000000e+00
99 101       0.0000000000000000e+00
99 102       0.0000000000000000e+00
99 109       0.0000000000000000e+00
99 110       0.0000000000000000e+00
99 111       0.0000000000000000e+00
99 112       0.0000000000000000e+00
99 113       0.0000000000000000e+00
99 114       0.0000000000000000e+00
99 115       0.0000000000000000e+00
99 116       0.0000000000000000e+00
99 117       0.0000000000000000e+00
100 100       0.0000000000000000e+00
100 52       0.0000000000000000e+00
100 53       0.0000000000000000e+00
100 54       0.0000000000000000e+00
100 55       0.0000000000000000e+00
100 56       0.0000000000000000e+00
100 57       0.0000000000000000e+00
100 58       0.0000000000000000e+00
100 59       0.0000000000000000e+00
100 60       0.0000000000000000e+00
100 67       0.0000000000000000e+00
100 68       0.0000000000000000e+00
100 69       0.0000000000000000e+00
100 70       0.0000000000000000e+00
100 71       0.0000000000000000e+00
100 72       0.0000000000000000e+00
100 73       0.0000000000000000e+00
100 74       0.0000000000000000e+00
100 75       0.0000000000000000e+00
100 97       0.0000000000000000e+00
100 98       0.0000000000000000e+00
100 99       0.0000000000000000e+00
100 101       0.0000000000000000e+00
100 102       0.0000000000000000e+00
100 103       0.0000000000000000e+00
100 104       0.0000000000000000e+00
100 105       0.0000000000000000e+00
100 112       0.0000000000000000e+00
100 113       0.0000000000000000e+00
100 114       0.0000000000000000e+00
100 115       0.0000000000000000e+00
100 116       0.0000000000000000e+00
100 117       0.0000000000000000e+00
100 118       0.0000000000000000e+00
100 119       0.0000000000000000e+00
100 120       0.0000000000000000e+00
101 101       0.0000000000000000e+00
101 52       0.0000000000000000e+00
101 53       0.0000000000000000e+00
101 54       0.0000000000000000e+00
101 55       0.0000000000000000e+00
101 56       0.0000000000000000e+00
101 57       0.0000000000000000e+00
101 58       0.0000000000000000e+00
101 59       0.0000000000000000e+00
101 60       0.0000000000000000e+00
101 67       0.0000000000000000e+00
101 68       0.0000000000000000e+00
101 69       0.0000000000000000e+00
101 70       0.0000000000000000e+00
101 71       0.0000000000000000e+00
101 72       0.0000000000000000e+00
101 73       0.0000000000000000e+00
101 74       0.0000000000000000e+00
101 75       0.0000000000000000e+00
101 97       0.0000000000000000e+00
101 98       0.0000000000000000e+00
101 99       0.0000000000000000e+00
101 100       0.0000000000000000e+00
101 102       0.0000000000000000e+00
101 103       0.0000000000000000e+00
101 104       0.0000000000000000e+00
101 105       0.0000000000000000e+00
101 112       0.0000000000000000e+00
101 113       0.0000000000000000e+00
101 114       0.0000000000000000e+00
101 115       0.0000000000000000e+00
101 116       0.0000000000000000e+00
101 117       0.0000000000000000e+00
101 118       0.0000000000000000e+00
101 119       0.0000000000000000e+00
101 120       0.0000000000000000e+00
102 102       0.0000000000000000e+00
102 52       0.0000000000000000e+00
102 53       0.0000000000000000e+00
102 54       0.0000000000000000e+00
102 55       0.0000000000000000e+00
102 56       0.0000000000000000e+00
102 57       0.0000000000000000e+00
102 58       0.0000000000000000e+00
102 59       0.0000000000000000e+00
102 60       0.0000000000000000e+00
102 67       0.0000000000000000e+00
102 68       0.0000000000000000e+00
102 69       0.0000000000000000e+00
102 70       0.0000000000000000e+00
102 71       0.0000000000000000e+00
102 72       0.0000000000000000e+00
102 73       0.0000000000000000e+00
102 74       0.0000000000000000e+00
102 75       0.0000000000000000e+00
102 97       0.0000000000000000e+00
102 98       0.0000000000000000e+00
102 99       0.0000000000000000e+00
102 100       0.0000000000000000e+00
102 101       0.0000000000000000e+00
102 103       0.0000000000000000e+00
102 104       0.0000000000000000e+00
102 105       0.0000000000000000e+00
102 112       0.0000000000000000e+00
102 113       0.0000000000000000e+00
102 114       0.0000000000000000e+00
102 115       0.0000000000000000e+00
102 116       0.0000000000000000e+00
102 117       0.0000000000000000e+00
102 118       0.0000000000000000e+00
102 119       0.0000000000000000e+00
102 120       0.0000000000000000e+00
103 103       0.0000000000000000e+00
103 55       0.0000000000000000e+00
103 56       0.0000000000000000e+00
103 57       0.0000000000000000e+00
103 58       0.0000000000000000e+00
103 59       0.0000000000000000e+00
103 60       0.0000000000000000e+00
103 70       0.0000000000000000e+00
103 71       0.0000000000000000e+00
103 72       0.0000000000000000e+00
103 73       0.0000000000000000e+00
103 74       0.0000000000000000e+00
103 75       0.0000000000000000e+00
103 100       0.0000000000000000e+00
103 101       0.0000000000000000e+00
103 102       0.0000000000000000e+00
103 104       0.0000000000000000e+00
103 105       0.0000000000000000e+00
103 115       0.0000000000000000e+00
103 116       0.0000000000000000e+00
103 117       0.0000000000000000e+00
103 118       0.0000000000000000e+00
103 119       0.0000000000000000e+00
103 120       0.0000000000000000e+00
103 385       0.0000000000000000e+00
103 386       0.0000000000000000e+00
103 387       0.0000000000000000e+00
103 388       0.0000000000000000e+00
103 389       0.0000000000000000e+00
103 390       0.0000000000000000e+00
103 394       0.0000000000000000e+00
103 395       0.0000000000000000e+00
103 396       0.0000000000000000e+00
103 397       0.0000000000000000e+00
103 398       0.0000000000000000e+00
103 399       0.0000000000000000e+00
104 104       0.0000000000000000e+00
104 55       0.0000000000000000e+00
104 56       0.0000000000000000e+00
104 57       0.0000000000000000e+00
104 58       0.0000000000000000e+00
104 59       0.0000000000000000e+00
104 60       0.0000000000000000e+00
104 70       0.0000000000000000e+00
104 71       0.0000000000000000e+00
104 72       0.0000000000000000e+00
104 73       0.0000000000000000e+00
104 74       0.0000000000000000e+00
104 75       0.0000000000000000e+00
104 100       0.0000000000000000e+00
104 101       0.0000000000000000e+00
104 102       0.0000000000000000e+00
104 103       0.0000000000000000e+00
104 105       0.0000000000000000e+00
104 115       0.0000000000000000e+00
104 116       0.0000000000000000e+00
104 117       0.0000000000000000e+00
104 118       0.0000000000000000e+00
104 119       0.0000000000000000e+00
104 120       0.0000000000000000e+00
104 385       0.0000000000000000e+00
104 386       0.0000000000000000e+00
104 387       0.0000000000000000e+00
104 388       0.0000000000000000e+00
104 389       0.0000000000000000e+00
104 390       0.0000000000000000e+00
104 394       0.0000000000000000e+00
104 395       0.0000000000000000e+00
104 396       0.0000000000000000e+00
104 397       0.0000000000000000e+00
104 398       0.0000000000000000e+00
104 399       0.0000000000000000e+00
105 105       0.0000000000000000e+00
105 55       0.0000000000000000e+00
105 56       0.0000000000000000e+00
105 57       0.0000000000000000e+00
105 58       0.0000000000000000e+00
105 59       0.0000000000000000e+00
105 60       0.0000000000000000e+00
105 70       0.0000000000000000e+00
105 71       0.0000000000000000e+00
105 72       0.0000000000000000e+00
105 73       0.0000000000000000e+00
105 74       0.0000000000000000e+00
105 75       0.0000000000000000e+00
105 100       0.0000000000000000e+00
105 101       0.0000000000000000e+00
105 102       0.0000000000000000e+00
105 103       0.0000000000000000e+00
105 104       0.0000000000000000e+00
105 115       0.0000000000000000e+00
105 116       0.0000000000000000e+00
105 117       0.0000000000000000e+00
105 118       0.0000000000000000e+00
105 119       0.0000000000000000e+00
105 120       0.0000000000000000e+00
105 385       0.0000000000000000e+00
105 386       0.0000000000000000e+00
105 387       0.0000000000000000e+00
105 388       0.0000000000000000e+00
105 389       0.0000000000000000e+00
105 390       0.0000000000000000e+00
105 394       0.0000000000000000e+00
105 395       0.0000000000000000e+00
105 396       0.0000000000000000e+00
105 397       0.0000000000000000e+00
105 398       0.0000000000000000e+00
105 399       0.0000000000000000e+00
106 106       0.0000000000000000e+00
106 46       0.0000000000000000e+00
106 47       0.0000000000000000e+00
106 48       0.0000000000000000e+00
106 49       0.0000000000000000e+00
106 50       0.0000000000000000e+00
106 51       0.0000000000000000e+00
106 61       0.0000000000000000e+00
106 62       0.0000000000000000e+00
106 63       0.0000000000000000e+00
106 64       0.0000000000000000e+00
106 65       0.0000000000000000e+00
106 66       0.0000000000000000e+00
106 76       0.0000000000000000e+00
106 77       0.0000000000000000e+00
106 78       0.0000000000000000e+00
106 79       0.0000000000000000e+00
106 80       0.0000000000000000e+00
106 81       0.0000000000000000e+00
106 91       0.0000000000000000e+00
106 92       0.0000000000000000e+00
106 93       0.0000000000000000e+00
106 94       0.0000000000000000e+00
106 95       0.0000000000000000e+00
106 96       0.0000000000000000e+00
106 107       0.0000000000000000e+00
106 108       0.0000000000000000e+00
106 109       0.0000000000000000e+00
106 110       0.0000000000000000e+00
106 111       0.0000000000000000e+00
106 121       0.0000000000000000e+00
106 122       0.0000000000000000e+00
106 123       0.0000000000000000e+00
106 124       0.0000000000000000e+00
106 125       0.0000000000000000e+00
106 126       0.0000000000000000e+00
107 107       0.0000000000000000e+00
107 46       0.0000000000000000e+00
107 47       0.0000000000000000e+00
107 48       0.0000000000000000e+00
107 49       0.0000000000000000e+00
107 50       0.0000000000000000e+00
107 51       0.0000000000000000e+00
107 61       0.0000000000000000e+00
107 62       0.0000000000000000e+00
107 63       0.0000000000000000e+00
107 64       0.0000000000000000e+00
107 65       0.0000000000000000e+00
107 66       0.0000000000000000e+00
107 76       0.0000000000000000e+00
107 77       0.0000000000000000e+00
107 78       0.0000000000000000e+00
107 79       0.0000000000000000e+00
107 80       0.0000000000000000e+00
107 81       0.0000000000000000e+00
107 91       0.0000000000000000e+00
107 92       0.0000000000000000e+00
107 93       0.0000000000000000e+00
107 94       0.0000000000000000e+00
107 95       0.0000000000000000e+00
107 96       0.0000000000000000e+00
107 106       0.0000000000000000e+00
107 108       0.0000000000000000e+00
107 109       0.0000000000000000e+00
107 110       0.0000000000000000e+00
107 111       0.0000000000000000e+00
107 121       0.0000000000000000e+00
107 122       0.0000000000000000e+00
107 123       0.0000000000000000e+00
107 124       0.0000000000000000e+00
107 125       0.0000000000000000e+00
107 126       0.0000000000000000e+00
108 108       0.0000000000000000e+00
108 46       0.0000000000000000e+00
108 47       0.0000000000000000e+00
108 48       0.0000000000000000e+00
108 49       0.0000000000000000e+00
108 50       0.0000000000000000e+00
108 51       0.0000000000000000e+00
108 61       0.0000000000000000e+00
108 62       0.0000000000000000e+00
108 63       0.0000000000000000e+00
108 64       0.0000000000000000e+00
108 65       0.0000000000000000e+00
108 66       0.0000000000000000e+00
108 76       0.0000000000000000e+00
108 77       0.0000000000000000e+00
108 78       0.0000000000000000e+00
108 79       0.0000000000000000e+00
108 80       0.0000000000000000e+00
108 81       0.0000000000000000e+00
108 91       0.0000000000000000e+00
108 92       0.0000000000000000e+00
108 93       0.0000000000000000e+00
108 94       0.0000000000000000e+00
108 95       0.0000000000000000e+00
108 96       0.0000000000000000e+00
108 106       0.0000000000000000e+00
108 107       0.0000000000000000e+00
108 109       0.0000000000000000e+00
108 110       0.0000000000000000e+00
108 111       0.0000000000000000e+00
108 121       0.0000000000000000e+00
108 122       0.0000000000000000e+00
108 123       0.0000000000000000e+00
108 124       0.0000000000000000e+00
108 125       0.0000000000000000e+00
108 126       0.0000000000000000e+00
109 109       0.0000000000000000e+00
109 46       0.0000000000000000e+00
109 47       0.0000000000000000e+00
109 48       0.0000000000000000e+00
109 49       0.0000000000000000e+00
109 50       0.0000000000000000e+00
109 51       0.0000000000000000e+00
109 52       0.0000000000000000e+00
109 53       0.0000000000000000e+00
109 54       0.0000000000000000e+00
109 61       0.0000000000000000e+00
109 62       0.0000000000000000e+00
109 63       0.0000000000000000e+00
109 64       0.0000000000000000e+00
109 65       0.0000000000000000e+00
109 66       0.0000000000000000e+00
109 67       0.0000000000000000e+00
109 68       0.0000000000000000e+00
109 69       0.0000000000000000e+00
109 76       0.0000000000000000e+00
109 77       0.0000000000000000e+00
109 78       0.0000000000000000e+00
109 79       0.0000000000000000e+00
109 80       0.0000000000000000e+00
109 81       0.0000000000000000e+00
109 82       0.0000000000000000e+00
109 83       0.0000000000000000e+00
109 84       0.0000000000000000e+00
109 91       0.0000000000000000e+00
109 92       0.0000000000000000e+00
109 93       0.0000000000000000e+00
109 94       0.0000000000000000e+00
109 95       0.0000000000000000e+00
109 96       0.0000000000000000e+00
109 97       0.0000000000000000e+00
109 98       0.0000000000000000e+00
109 99       0.0000000000000000e+00
109 106       0.0000000000000000e+00
109 107       0.0000000000000000e+00
109 108       0.0000000000000000e+00
109 110       0.0000000000000000e+00
109 111       0.0000000000000000e+00
109 112       0.0000000000000000e+00
109 113       0.0000000000000000e+00
109 114       0.0000000000000000e+00
109 121       0.0000000000000000e+00
109 122       0.0000000000000000e+00
109 123       0.0000000000000000e+00
109 124       0.0000000000000000e+00
109 125       0.0000000000000000e+00
109 126       0.0000000000000000e+00
109 127       0.0000000000000000e+00
109 128       0.0000000000000000e+00
109 129       0.0000000000000000e+00
110 110       0.0000000000000000e+00
110 46       0.0000000000000000e+00
110 47       0.0000000000000000e+00
110 48       0.0000000000000000e+00
110 49       0.0000000000000000e+00
110 50       0.0000000000000000e+00
110 51       0.0000000000000000e+00
110 52       0.0000000000000000e+00
110 53       0.0000000000000000e+00
110 54       0.0000000000000000e+00
110 61       0.0000000000000000e+00
110 62       0.0000000000000000e+00
110 63       0.0000000000000000e+00
110 64       0.0000000000000000e+00
110 65       0.0000000000000000e+00
110 66       0.0000000000000000e+00
110 67       0.0000000000000000e+00
110 68       0.0000000000000000e+00
110 69       0.0000000000000000e+00
110 76       0.0000000000000000e+00
110 77       0.0000000000000000e+00
110 78       0.0000000000000000e+00
110 79       0.0000000000000000e+00
110 80       0.0000000000000000e+00
110 81       0.0000000000000000e+00
110 82       0.0000000000000000e+00
110 83       0.0000000000000000e+00
110 84       0.0000000000000000e+00
110 91       0.0000000000000000e+00
110 92       0.0000000000000000e+00
110 93       0.0000000000000000e+00
110 94       0.0000000000000000e+00
110 95       0.0000000000000000e+00
110 96       0.0000000000000000e+00
110 97       0.0000000000000000e+00
110 98       0.0000000000000000e+00
110 99       0.0000000000000000e+00
110 106       0.0000000000000000e+00
110 107       0.0000000000000000e+00
110 108       0.0000000000000000e+00
110 109       0.0000000000000000e+00
110 111       0.0000000000000000e+00
110 112       0.0000000000000000e+00
110 113       0.0000000000000000e+00
110 114       0.0000000000000000e+00
110 121       0.0000000000000000e+00
110 122       0.0000000000000000e+00
110 123       0.0000000000000000e+00
110 124       0.0000000000000000e+00
110 125       0.0000000000000000e+00
110 126       0.0000000000000000e+00
110 127       0.0000000000000000e+00
110 128       0.0000000000000000e+00
110 129       0.0000000000000000e+00
111 111       0.0000000000000000e+00
111 46       0.0000000000000000e+00
111 47       0.0000000000000000e+00
111 48       0.0000000000000000e+00
111 49       0.0000000000000000e+00
111 50       0.0000000000000000e+00
111 51       0.0000000000000000e+00
111 52       0.0000000000000000e+00
111 53       0.0000000000000000e+00
111 54       0.0000000000000000e+00
111 61       0.0000000000000000e+00
111 62       0.0000000000000000e+00
111 63       0.0000000000000000e+00
111 64       0.0000000000000000e+00
111 65       0.0000000000000000e+00
111 66       0.0000000000000000e+00
111 67       0.0000000000000000e+00
111 68       0.0000000000000000e+00
111 69       0.0000000000000000e+00
111 76       0.0000000000000000e+00
111 77       0.0000000000000000e+00
111 78       0.0000000000000000e+00
111 79       0.0000000000000000e+00
111 80       0.0000000000000000e+00
111 81       0.0000000000000000e+00
111 82       0.0000000000000000e+00
111 83       0.0000000000000000e+00
111 84       0.0000000000000000e+00
111 91       0.0000000000000000e+00
111 92       0.0000000000000000e+00
111 93       0.0000000000000000e+00
111 94       0.0000000000000000e+00
111 95       0.0000000000000000e+00
111 96       0.0000000000000000e+00
111 97       0.0000000000000000e+00
111 98       0.0000000000000000e+00
111 99       0.0000000000000000e+00
111 106       0.0000000000000000e+00
111 107       0.0000000000000000e+00
111 108       0.0000000000000000e+00
111 109       0.0000000000000000e+00
111 110       0.0000000000000000e+00
111 112       0.0000000000000000e+00
111 113       0.0000000000000000e+00
111 114       0.0000000000000000e+00
111 121       0.0000000000000000e+00
111 122       0.0000000000000000e+00
111 123       0.0000000000000000e+00
111 124       0.0000000000000000e+00
111 125       0.0000000000000000e+00
111 126       0.0000000000000000e+00
111 127       0.0000000000000000e+00
111 128       0.0000000000000000e+00
111 129       0.0000000000000000e+00
112 112       0.0000000000000000e+00
112 49       0.0000000000000000e+00
112 50       0.0000000000000000e+00
112 51       0.0000000000000000e+00
112 52       0.0000000000000000e+00
112 53       0.0000000000000000e+00
112 54       0.0000000000000000e+00
112 55       0.0000000000000000e+00
112 56       0.0000000000000000e+00
112 57       0.0000000000000000e+00
112 64       0.0000000000000000e+00
112 65       0.0000000000000000e+00
112 66       0.0000000000000000e+00
112 67       0.0000000000000000e+00
112 68       0.0000000000000000e+00
112 69       0.0000000000000000e+00
112 70       0.0000000000000000e+00
112 71       0.0000000000000000e+00
112 72       0.0000000000000000e+00
112 79       0.0000000000000000e+00
112 80       0.0000000000000000e+00
112 81       0.0000000000000000e+00
112 82       0.0000000000000000e+00
112 83       0.0000000000000000e+00
112 84       0.0000000000000000e+00
112 85       0.0000000000000000e+00
112 86       0.0000000000000000e+00
112 87       0.0000000000000000e+00
112 94       0.0000000000000000e+00
112 95       0.0000000000000000e+00
112 96       0.0000000000000000e+00
112 97       0.0000000000000000e+00
112 98       0.0000000000000000e+00
112 99       0.0000000000000000e+00
112 100       0.0000000000000000e+00
112 101       0.0000000000000000e+00
112 102       0.0000000000000000e+00
112 109       0.0000000000000000e+00
112 110       0.0000000000000000e+00
112 111       0.0000000000000000e+00
112 113       0.0000000000000000e+00
112 114       0.0000000000000000e+00
112 115       0.0000000000000000e+00
112 116       0.0000000000000000e+00
112 117       0.0000000000000000e+00
112 124       0.0000000000000000e+00
112 125       0.0000000000000000e+00
112 126       0.0000000000000000e+00
112 127       0.0000000000000000e+00
112 128       0.0000000000000000e+00
112 129       0.0000000000000000e+00
112 130       0.0000000000000000e+00
112 131       0.0000000000000000e+00
112 132       0.0000000000000000e+00
113 113       0.0000000000000000e+00
113 49       0.0000000000000000e+00
113 50       0.0000000000000000e+00
113 51       0.0000000000000000e+00
113 52       0.0000000000000000e+00
113 53       0.0000000000000000e+00
113 54       0.0000000000000000e+00
113 55       0.0000000000000000e+00
113 56       0.0000000000000000e+00
113 57       0.0000000000000000e+00
113 64       0.0000000000000000e+00
113 65       0.0000000000000000e+00
113 66       0.0000000000000000e+00
113 67       0.0000000000000000e+00
113 68       0.0000000000000000e+00
113 69       0.0000000000000000e+00
113 70       0.0000000000000000e+00
113 71       0.0000000000000000e+00
113 72       0.0000000000000000e+00
113 79       0.0000000000000000e+00
113 80       0.0000000000000000e+00
113 81       0.0000000000000000e+00
113 82       0.0000000000000000e+00
113 83       0.0000000000000000e+00
113 84       0.0000000000000000e+00
113 85       0.0000000000000000e+00
113 86       0.0000000000000000e+00
113 87       0.0000000000000000e+00
113 94       0.0000000000000000e+00
113 95       0.0000000000000000e+00
113 96       0.0000000000000000e+00
113 97       0.0000000000000000e+00
113 98       0.0000000000000000e+00
113 99       0.0000000000000000e+00
113 100       0.0000000000000000e+00
113 101       0.0000000000000000e+00
113 102       0.0000000000000000e+00
113 109       0.0000000000000000e+00
113 110       0.0000000000000000e+00
113 111       0.0000000000000000e+00
113 112       0.0000000000000000e+00
113 114       0.0000000000000000e+00
113 115       0.0000000000000000e+00
113 116       0.0000000000000000e+00
113 117       0.0000000000000000e+00
113 124       0.0000000000000000e+00
113 125       0.0000000000000000e+00
113 126       0.0000000000000000e+00
113 127       0.0000000000000000e+00
113 128       0.0000000000000000e+00
113 129       0.0000000000000000e+00
113 130       0.0000000000000000e+00
113 131       0.0000000000000000e+00
113 132       0.0000000000000000e+00
114 114       0.0000000000000000e+00
114 49       0.0000000000000000e+00
114 50       0.0000000000000000e+00
114 51       0.0000000000000000e+00
114 52       0.0000000000000000e+00
114 53       0.0000000000000000e+00
114 54       0.0000000000000000e+00
114 55       0.0000000000000000e+00
114 56       0.0000000000000000e+00
114 57       0.0000000000000000e+00
114 64       0.0000000000000000e+00
114 65       0.0000000000000000e+00
114 66       0.0000000000000000e+00
114 67       0.0000000000000000e+00
114 68       0.0000000000000000e+00
114 69       0.0000000000000000e+00
114 70       0.0000000000000000e+00
114 71       0.0000000000000000e+00
114 72       0.0000000000000000e+00
114 79       0.0000000000000000e+00
114 80       0.0000000000000000e+00
114 81       0.0000000000000000e+00
114 82       0.0000000000000000e+00
114 83       0.0000000000000000e+00
114 84       0.0000000000000000e+00
114 85       0.0000000000000000e+00
114 86       0.0000000000000000e+00
114 87       0.0000000000000000e+00
114 94       0.0000000000000000e+00
114 95       0.0000000000000000e+00
114 96       0.0000000000000000e+00
114 97       0.0000000000000000e+00
114 98       0.0000000000000000e+00
114 99       0.0000000000000000e+00
114 100       0.0000000000000000e+00
114 101       0.0000000000000000e+00
114 102       0.0000000000000000e+00
114 109       0.0000000000000000e+00
114 110       0.0000000000000000e+00
114 111       0.0000000000000000e+00
114 112       0.0000000000000000e+00
114 113       0.0000000000000000e+00
114 115       0.0000000000000000e+00
114 116       0.0000000000000000e+00
114 117       0.0000000000000000e+00
114 124       0.0000000000000000e+00
114 125       0.0000000000000000e+00
114 126       0.0000000000000000e+00
114 127       0.0000000000000000e+00
114 128       0.0000000000000000e+00
114 129       0.0000000000000000e+00
114 130       0.0000000000000000e+00
114 131       0.0000000000000000e+00
114 132       0.0000000000000000e+00
115 115       0.0000000000000000e+00
115 52       0.0000000000000000e+00
115 53       0.0000000000000000e+00
115 54       0.0000000000000000e+00
115 55       0.0000000000000000e+00
115 56       0.0000000000000000e+00
115 57       0.0000000000000000e+00
115 58       0.0000000000000000e+00
115 59       0.0000000000000000e+00
115 60       0.0000000000000000e+00
115 67       0.0000000000000000e+00
115 68       0.0000000000000000e+00
115 69       0.0000000000000000e+00
115 70       0.0000000000000000e+00
115 71       0.0000000000000000e+00
115 72       0.0000000000000000e+00
115 73       0.0000000000000000e+00
115 74       0.0000000000000000e+00
115 75       0.0000000000000000e+00
115 82       0.0000000000000000e+00
115 83       0.0000000000000000e+00
115 84       0.0000000000000000e+00
115 85       0.0000000000000000e+00
115 86       0.0000000000000000e+00
115 87       0.0000000000000000e+00
115 88       0.0000000000000000e+00
115 89       0.0000000000000000e+00
115 90       0.0000000000000000e+00
115 97       0.0000000000000000e+00
115 98       0.0000000000000000e+00
115 99       0.0000000000000000e+00
115 100       0.0000000000000000e+00
115 101       0.0000000000000000e+00
115 102       0.0000000000000000e+00
115 103       0.0000000000000000e+00
115 104       0.0000000000000000e+00
115 105       0.0000000000000000e+00
115 112       0.0000000000000000e+00
115 113       0.0000000000000000e+00
115 114       0.0000000000000000e+00
115 116       0.0000000000000000e+00
115 117       0.0000000000000000e+00
115 118       0.0000000000000000e+00
115 119       0.0000000000000000e+00
115 120       0.0000000000000000e+00
115 127       0.0000000000000000e+00
115 128       0.0000000000000000e+00
115 129       0.0000000000000000e+00
115 130       0.0000000000000000e+00
115 131       0.0000000000000000e+00
115 132       0.0000000000000000e+00
115 133       0.0000000000000000e+00
115 134       0.0000000000000000e+00
115 135       0.0000000000000000e+00
116 116       0.0000000000000000e+00
116 52       0.0000000000000000e+00
116 53       0.0000000000000000e+00
116 54       0.0000000000000000e+00
116 55       0.0000000000000000e+00
116 56       0.0000000000000000e+00
116 57       0.0000000000000000e+00
116 58       0.0000000000000000e+00
116 59       0.0000000000000000e+00
116 60       0.0000000000000000e+00
116 67       0.0000000000000000e+00
116 68       0.0000000000000000e+00
116 69       0.0000000000000000e+00
116 70       0.0000000000000000e+00
116 71       0.0000000000000000e+00
116 72       0.0000000000000000e+00
116 73       0.0000000000000000e+00
116 74       0.0000000000000000e+00
116 75       0.0000000000000000e+00
116 82       0.0000000000000000e+00
116 83       0.0000000000000000e+00
116 84       0.0000000000000000e+00
116 85       0.0000000000000000e+00
116 86       0.0000000000000000e+00
116 87       0.0000000000000000e+00
116 88       0.0000000000000000e+00
116 89       0.0000000000000000e+00
116 90       0.0000000000000000e+00
116 97       0.0000000000000000e+00
116 98       0.0000000000000000e+00
116 99       0.0000000000000000e+00
116 100       0.0000000000000000e+00
116 101       0.0000000000000000e+00
116 102       0.0000000000000000e+00
116 103       0.0000000000000000e+00
116 104       0.0000000000000000e+00
116 105       0.0000000000000000e+00
116 112       0.0000000000000000e+00
116 113       0.0000000000000000e+00
116 114       0.0000000000000000e+00
116 115       0.0000000000000000e+00
116 117       0.0000000000000000e+00
116 118       0.0000000000000000e+00
116 119       0.0000000000000000e+00
116 120       0.0000000000000000e+00
116 127       0.0000000000000000e+00
116 128       0.0000000000000000e+00
116 129       0.0000000000000000e+00
116 130       0.0000000000000000e+00
116 131       0.0000000000000000e+00
116 132       0.0000000000000000e+00
116 133       0.0000000000000000e+00
116 134       0.0000000000000000e+00
116 135       0.0000000000000000e+00
117 117       0.0000000000000000e+00
117 52       0.0000000000000000e+00
117 53       0.0000000000000000e+00
117 54       0.0000000000000000e+00
117 55       0.0000000000000000e+00
117 56       0.0000000000000000e+00
117 57       0.0000000000000000e+00
117 58       0.0000000000000000e+00
117 59       0.0000000000000000e+00
117 60       0.0000000000000000e+00
117 67       0.0000000000000000e+00
117 68       0.0000000000000000e+00
117 69       0.0000000000000000e+00
117 70       0.0000000000000000e+00
117 71       0.0000000000000000e+00
117 72       0.0000000000000000e+00
117 73       0.0000000000000000e+00
117 74       0.0000000000000000e+00
117 75       0.0000000000000000e+00
117 82       0.0000000000000000e+00
117 83       0.0000000000000000e+00
117 84       0.0000000000000000e+00
117 85       0.0000000000000000e+00
117 86       0.0000000000000000e+00
117 87       0.0000000000000000e+00
117 88       0.0000000000000000e+00
117 89       0.0000000000000000e+00
117 90       0.0000000000000000e+00
117 97       0.0000000000000000e+00
117 98       0.0000000000000000e+00
117 99       0.0000000000000000e+00
117 100       0.0000000000000000e+00
117 101       0.0000000000000000e+00
117 102       0.0000000000000000e+00
117 103       0.0000000000000000e+00
117 104       0.0000000000000000e+00
117 105       0.0000000000000000e+00
117 112       0.0000000000000000e+00
117 113       0.0000000000000000e+00
117 114       0.0000000000000000e+00
117 115       0.0000000000000000e+00
117 116       0.0000000000000000e+00
117 118       0.0000000000000000e+00
117 119       0.0000000000000000e+00
117 120       0.0000000000000000e+00
117 127       0.0000000000000000e+00
117 128       0.0000000000000000e+00
117 129       0.0000000000000000e+00
117 130       0.0000000000000000e+00
117 131       0.0000000000000000e+00
117 132       0.0000000000000000e+00
117 133       0.0000000000000000e+00
117 134       0.0000000000000000e+00
117 135       0.0000000000000000e+00
118 118       0.0000000000000000e+00
118 55       0.0000000000000000e+00
118 56       0.0000000000000000e+00
118 57       0.0000000000000000e+00
118 58       0.0000000000000000e+00
118 59       0.0000000000000000e+00
118 60       0.0000000000000000e+00
118 70       0.0000000000000000e+00
118 71       0.0000000000000000e+00
118 72       0.0000000000000000e+00
118 73       0.0000000000000000e+00
118 74       0.0000000000000000e+00
118 75       0.0000000000000000e+00
118 85       0.0000000000000000e+00
118 86       0.0000000000000000e+00
118 87       0.0000000000000000e+00
118 88       0.0000000000000000e+00
118 89       0.0000000000000000e+00
118 90       0.0000000000000000e+00
118 100       0.0000000000000000e+00
118 101       0.0000000000000000e+00
118 102       0.0000000000000000e+00
118 103       0.0000000000000000e+00
118 104       0.0000000000000000e+00
118 105       0.0000000000000000e+00
118 115       0.0000000000000000e+00
118 116       0.0000000000000000e+00
118 117       0.0000000000000000e+00
118 119       0.0000000000000000e+00
118 120       0.0000000000000000e+00
118 130       0.0000000000000000e+00
118 131       0.0000000000000000e+00
118 132       0.0000000000000000e+00
118 133       0.0000000000000000e+00
118 134       0.0000000000000000e+00
118 135       0.0000000000000000e+00
118 385       0.0000000000000000e+00
118 386       0.0000000000000000e+00
118 387       0.0000000000000000e+00
118 388       0.0000000000000000e+00
118 389       0.0000000000000000e+00
118 390       0.0000000000000000e+00
118 391       0.0000000000000000e+00
118 392       0.0000000000000000e+00
118 393       0.0000000000000000e+00
118 394       0.0000000000000000e+00
118 395       0.0000000000000000e+00
118 396       0.0000000000000000e+00
118 397       0.0000000000000000e+00
118 398       0.0000000000000000e+00
118 399       0.0000000000000000e+00
118 400       0.0000000000000000e+00
118 401       0.0000000000000000e+00
118 402       0.0000000000000000e+00
119 119       0.0000000000000000e+00
119 55       0.0000000000000000e+00
119 56       0.0000000000000000e+00
119 57       0.0000000000000000e+00
119 58       0.0000000000000000e+00
119 59       0.0000000000000000e+00
119 60       0.0000000000000000e+00
119 70       0.0000000000000000e+00
119 71       0.0000000000000000e+00
119 72       0.0000000000000000e+00
119 73       0.0000000000000000e+00
119 74       0.0000000000000000e+00
119 75       0.0000000000000000e+00
119 85       0.0000000000000000e+00
119 86       0.0000000000000000e+00
119 87       0.0000000000000000e+00
119 88       0.0000000000000000e+00
119 89       0.0000000000000000e+00
119 90       0.0000000000000000e+00
119 100       0.0000000000000000e+00
119 101       0.0000000000000000e+00
119 102       0.0000000000000000e+00
119 103       0.0000000000000000e+00
119 104       0.0000000000000000e+00
119 105       0.0000000000000000e+00
119 115       0.0000000000000000e+00
119 116       0.0000000000000000e+00
119 117       0.0000000000000000e+00
119 118       0.0000000000000000e+00
119 120       0.0000000000000000e+00
119 130       0.0000000000000000e+00
119 131       0.0000000000000000e+00
119 132       0.0000000000000000e+00
119 133       0.0000000000000000e+00
119 134       0.0000000000000000e+00
119 135       0.0000000000000000e+00
119 385       0.0000000000000000e+00
119 386       0.0000000000000000e+00
119 387       0.0000000000000000e+00
119 388       0.0000000000000000e+00
119 389       0.0000000000000000e+00
119 390       0.0000000000000000e+00
119 391       0.0000000000000000e+00
119 392       0.0000000000000000e+00
119 393       0.0000000000000000e+00
119 394       0.0000000000000000e+00
119 395       0.0000000000000000e+00
119 396       0.0000000000000000e+00
119 397       0.0000000000000000e+00
119 398       0.0000000000000000e+00
119 399       0.0000000000000000e+00
119 400       0.0000000000000000e+00
119 401       0.0000000000000000e+00
119 402       0.0000000000000000e+00
120 120       0.0000000000000000e+00
120 55       0.0000000000000000e+00
120 56       0.0000000000000000e+00
120 57       0.0000000000000000e+00
120 58       0.0000000000000000e+00
120 59       0.0000000000000000e+00
120 60       0.0000000000000000e+00
120 70       0.0000000000000000e+00
120 71       0.0000000000000000e+00
120 72       0.0000000000000000e+00
120 73       0.0000000000000000e+00
120 74       0.0000000000000000e+00
120 75       0.0000000000000000e+00
120 85       0.0000000000000000e+00
120 86       0.0000000000000000e+00
120 87       0.0000000000000000e+00
120 88       0.0000000000000000e+00
120 89       0.0000000000000000e+00
120 90       0.0000000000000000e+00
120 100       0.0000000000000000e+00
120 101       0.0000000000000000e+00
120 102       0.0000000000000000e+00
120 103       0.0000000000000000e+00
120 104       0.0000000000000000e+00
120 105       0.0000000000000000e+00
120 115       0.0000000000000000e+00
120 116       0.0000000000000000e+00
120 117       0.0000000000000000e+00
120 118       0.0000000000000000e+00
120 119       0.0000000000000000e+00
120 130       0.0000000000000000e+00
120 131       0.0000000000000000e+00
120 132       0.0000000000000000e+00
120 133       0.0000000000000000e+00
120 134       0.0000000000000000e+00
120 135       0.0000000000000000e+00
120 385       0.0000000000000000e+00
120 386       0.0000000000000000e+00
120 387       0.0000000000000000e+00
120 388       0.0000000000000000e+00
120 389       0.0000000000000000e+00
120 390       0.0000000000000000e+00
120 391       0.0000000000000000e+00
120 392       0.0000000000000000e+00
120 393       0.0000000000000000e+00
120 394       0.0000000000000000e+00
120 395       0.0000000000000000e+00
120 396       0.0000000000000000e+00
120 397       0.0000000000000000e+00
120 398       0.0000000000000000e+00
120 399       0.0000000000000000e+00
120 400       0.0000000000000000e+00
120 401       0.0000000000000000e+00
120 402       0.0000000000000000e+00
121 121       0.0000000000000000e+00
121 61       0.0000000000000000e+00
121 62       0.0000000000000000e+00
121 63       0.0000000000000000e+00
121 64       0.0000000000000000e+00
121 65       0.0000000000000000e+00
121 66       0.0000000000000000e+00
121 76       0.0000000000000000e+00
121 77       0.0000000000000000e+00
121 78       0.0000000000000000e+00
121 79       0.0000000000000000e+00
121 80       0.0000000000000000e+00
121 81       0.0000000000000000e+00
121 106       0.0000000000000000e+00
121 107       0.0000000000000000e+00
121 108       0.0000000000000000e+00
121 109       0.0000000000000000e+00
121 110       0.0000000000000000e+00
121 111       0.0000000000000000e+00
121 122       0.0000000000000000e+00
121 123       0.0000000000000000e+00
121 124       0.0000000000000000e+00
121 125       0.0000000000000000e+00
121 126       0.0000000000000000e+00
122 122       0.0000000000000000e+00
122 61       0.0000000000000000e+00
122 62       0.0000000000000000e+00
122 63       0.0000000000000000e+00
122 64       0.0000000000000000e+00
122 65       0.0000000000000000e+00
122 66       0.0000000000000000e+00
122 76       0.0000000000000000e+00
122 77       0.0000000000000000e+00
122 78       0.0000000000000000e+00
122 79       0.0000000000000000e+00
122 80       0.0000000000000000e+00
122 81       0.0000000000000000e+00
122 106       0.0000000000000000e+00
122 107       0.0000000000000000e+00
122 108       0.0000000000000000e+00
122 109       0.0000000000000000e+00
122 110       0.0000000000000000e+00
122 111       0.0000000000000000e+00
122 121       0.0000000000000000e+00
122 123       0.0000000000000000e+00
122 124       0.0000000000000000e+00
122 125       0.0000000000000000e+00
122 126       0.0000000000000000e+00
123 123       0.0000000000000000e+00
123 61       0.0000000000000000e+00
123 62       0.0000000000000000e+00
123 63       0.0000000000000000e+00
123 64       0.0000000000000000e+00
123 65       0.0000000000000000e+00
123 66       0.0000000000000000e+00
123 76       0.0000000000000000e+00
123 77       0.0000000000000000e+00
123 78       0.0000000000000000e+00
123 79       0.0000000000000000e+00
123 80       0.0000000000000000e+00
123 81       0.0000000000000000e+00
123 106       0.0000000000000000e+00
123 107       0.0000000000000000e+00
123 108       0.0000000000000000e+00
123 109       0.0000000000000000e+00
123 110       0.0000000000000000e+00
123 111       0.0000000000000000e+00
123 121       0.0000000000000000e+00
123 122       0.0000000000000000e+00
123 124       0.0000000000000000e+00
123 125       0.0000000000000000e+00
123 126       0.0000000000000000e+00
124 124       0.0000000000000000e+00
124 61       0.0000000000000000e+00
124 62       0.0000000000000000e+00
124 63       0.0000000000000000e+00
124 64       0.0000000000000000e+00
124 65       0.0000000000000000e+00
124 66       0.0000000000000000e+00
124 67       0.0000000000000000e+00
124 68       0.0000000000000000e+00
124 69       0.0000000000000000e+00
124 76       0.0000000000000000e+00
124 77       0.0000000000000000e+00
124 78       0.0000000000000000e+00
124 79       0.0000000000000000e+00
124 80       0.0000000000000000e+00
124 81       0.0000000000000000e+00
124 82       0.0000000000000000e+00
124 83       0.0000000000000000e+00
124 84       0.0000000000000000e+00
124 106       0.0000000000000000e+00
124 107       0.0000000000000000e+00
124 108       0.0000000000000000e+00
124 109       0.0000000000000000e+00
124 110       0.0000000000000000e+00
124 111       0.0000000000000000e+00
124 112       0.0000000000000000e+00
124 113       0.0000000000000000e+00
124 114       0.0000000000000000e+00
124 121       0.0000000000000000e+00
124 122       0.0000000000000000e+00
124 123       0.0000000000000000e+00
124 125       0.0000000000000000e+00
124 126       0.0000000000000000e+00
124 127       0.0000000000000000e+00
124 128       0.0000000000000000e+00
124 129       0.0000000000000000e+00
125 125       0.0000000000000000e+00
125 61       0.0000000000000000e+00
125 62       0.0000000000000000e+00
125 63       0.0000000000000000e+00
125 64       0.0000000000000000e+00
125 65       0.0000000000000000e+00
125 66       0.0000000000000000e+00
125 67       0.0000000000000000e+00
125 68       0.0000000000000000e+00
125 69       0.0000000000000000e+00
125 76       0.0000000000000000e+00
125 77       0.0000000000000000e+00
125 78       0.0000000000000000e+00
125 79       0.0000000000000000e+00
125 80       0.0000000000000000e+00
125 81       0.0000000000000000e+00
125 82       0.0000000000000000e+00
125 83       0.0000000000000000e+00
125 84       0.0000000000000000e+00
125 106       0.0000000000000000e+00
125 107       0.0000000000000000e+00
125 108       0.0000000000000000e+00
125 109       0.0000000000000000e+00
125 110       0.0000000000000000e+00
125 111       0.0000000000000000e+00
125 112       0.0000000000000000e+00
125 113       0.0000000000000000e+00
125 114       0.0000000000000000e+00
125 121       0.0000000000000000e+00
125 122       0.0000000000000000e+00
125 123       0.0000000000000000e+00
125 124       0.0000000000000000e+00
125 126       0.0000000000000000e+00
125 127       0.0000000000000000e+00
125 128       0.0000000000000000e+00
125 129       0.0000000000000000e+00
126 126       0.0000000000000000e+00
126 61       0.0000000000000000e+00
126 62       0.0000000000000000e+00
126 63       0.0000000000000000e+00
126 64       0.0000000000000000e+00
126 65       0.0000000000000000e+00
126 66       0.0000000000000000e+00
126 67       0.0000000000000000e+00
126 68       0.0000000000000000e+00
126 69       0.0000000000000000e+00
126 76       0.0000000000000000e+00
126 77       0.0000000000000000e+00
126 78       0.0000000000000000e+00
126 79       0.0000000000000000e+00
126 80       0.0000000000000000e+00
126 81       0.0000000000000000e+00
126 82       0.0000000000000000e+00
126 83       0.0000000000000000e+00
126 84       0.0000000000000000e+00
126 106       0.0000000000000000e+00
126 107       0.0000000000000000e+00
126 108       0.0000000000000000e+00
126 109       0.0000000000000000e+00
126 110       0.0000000000000000e+00
126 111       0.0000000000000000e+00
126 112       0.0000000000000000e+00
126 113       0.0000000000000000e+00
126 114       0.0000000000000000e+00
126 121       0.0000000000000000e+00
126 122       0.0000000000000000e+00
126 123       0.0000000000000000e+00
126 124       0.0000000000000000e+00
126 125       0.0000000000000000e+00
126 127       0.0000000000000000e+00
126 128       0.0000000000000000e+00
126 129       0.0000000000000000e+00
127 127       0.0000000000000000e+00
127 64       0.0000000000000000e+00
127 65       0.0000000000000000e+00
127 66       0.0000000000000000e+00
127 67       0.0000000000000000e+00
127 68       0.0000000000000000e+00
127 69       0.0000000000000000e+00
127 70       0.0000000000000000e+00
127 71       0.0000000000000000e+00
127 72       0.0000000000000000e+00
127 79       0.0000000000000000e+00
127 80       0.0000000000000000e+00
127 81       0.0000000000000000e+00
127 82       0.0000000000000000e+00
127 83       0.0000000000000000e+00
127 84       0.0000000000000000e+00
127 85       0.0000000000000000e+00
127 86       0.0000000000000000e+00
127 87       0.0000000000000000e+00
127 109       0.0000000000000000e+00
127 110       0.0000000000000000e+00
127 111       0.0000000000000000e+00
127 112       0.0000000000000000e+00
127 113       0.0000000000000000e+00
127 114       0.0000000000000000e+00
127 115       0.0000000000000000e+00
127 116       0.0000000000000000e+00
127 117       0.0000000000000000e+00
127 124       0.0000000000000000e+00
127 125       0.0000000000000000e+00
127 126       0.0000000000000000e+00
127 128       0.0000000000000000e+00
127 129       0.0000000000000000e+00
127 130       0.0000000000000000e+00
127 131       0.0000000000000000e+00
127 132       0.0000000000000000e+00
128 128       0.0000000000000000e+00
128 64       0.0000000000000000e+00
128 65       0.0000000000000000e+00
128 66       0.0000000000000000e+00
128 67       0.0000000000000000e+00
128 68       0.0000000000000000e+00
128 69       0.0000000000000000e+00
128 70       0.0000000000000000e+00
128 71       0.0000000000000000e+00
128 72       0.0000000000000000e+00
128 79       0.0000000000000000e+00
128 80       0.0000000000000000e+00
128 81       0.0000000000000000e+00
128 82       0.0000000000000000e+00
128 83       0.0000000000000000e+00
128 84       0.0000000000000000e+00
128 85       0.0000000000000000e+00
128 86       0.0000000000000000e+00
128 87       0.0000000000000000e+00
128 109       0.0000000000000000e+00
128 110       0.0000000000000000e+00
128 111       0.0000000000000000e+00
128 112       0.0000000000000000e+00
128 113       0.0000000000000000e+00
128 114       0.0000000000000000e+00
128 115       0.0000000000000000e+00
128 116       0.0000000000000000e+00
128 117       0.0000000000000000e+00
128 124       0.0000000000000000e+00
128 125       0.0000000000000000e+00
128 126       0.0000000000000000e+00
128 127       0.0000000000000000e+00
128 129       0.0000000000000000e+00
128 130       0.0000000000000000e+00
128 131       0.0000000000000000e+00
128 132       0.0000000000000000e+00
129 129       0.0000000000000000e+00
129 64       0.0000000000000000e+00
129 65       0.0000000000000000e+00
129 66       0.0000000000000000e+00
129 67       0.0000000000000000e+00
129 68       0.0000000000000000e+00
129 69       0.0000000000000000e+00
129 70       0.0000000000000000e+00
129 71       0.0000000000000000e+00
129 72       0.0000000000000000e+00
129 79       0.0000000000000000e+00
129 80       0.0000000000000000e+00
129 81       0.0000000000000000e+00
129 82       0.0000000000000000e+00
129 83       0.0000000000000000e+00
129 84       0.0000000000000000e+00
129 85       0.0000000000000000e+00
129 86       0.0000000000000000e+00
129 87       0.0000000000000000e+00
129 109       0.0000000000000000e+00
129 110       0.0000000000000000e+00
129 111       0.0000000000000000e+00
129 112       0.0000000000000000e+00
129 113       0.0000000000000000e+00
129 114       0.0000000000000000e+00
129 115       0.0000000000000000e+00
129 116       0.0000000000000000e+00
129 117       0.0000000000000000e+00
129 124       0.0000000000000000e+00
129 125       0.0000000000000000e+00
129 126       0.0000000000000000e+00
129 127       0.0000000000000000e+00
129 128       0.0000000000000000e+00
129 130       0.0000000000000000e+00
129 131       0.0000000000000000e+00
129 132       0.0000000000000000e+00
130 130       0.0000000000000000e+00
130 67       0.0000000000000000e+00
130 68       0.0000000000000000e+00
130 69       0.0000000000000000e+00
130 70       0.0000000000000000e+00
130 71       0.0000000000000000e+00
130 72       0.0000000000000000e+00
130 73       0.0000000000000000e+00
130 74       0.0000000000000000e+00
130 75       0.0000000000000000e+00
130 82       0.0000000000000000e+00
130 83       0.0000000000000000e+00
130 84       0.0000000000000000e+00
130 85       0.0000000000000000e+00
130 86       0.0000000000000000e+00
130 87       0.0000000000000000e+00
130 88       0.0000000000000000e+00
130 89       0.0000000000000000e+00
130 90       0.0000000000000000e+00
130 112       0.0000000000000000e+00
130 113       0.0000000000000000e+00
130 114       0.0000000000000000e+00
130 115       0.0000000000000000e+00
130 116       0.0000000000000000e+00
130 117       0.0000000000000000e+00
130 118       0.0000000000000000e+00
130 119       0.0000000000000000e+00
130 120       0.0000000000000000e+00
130 127       0.0000000000000000e+00
130 128       0.0000000000000000e+00
130 129       0.0000000000000000e+00
130 131       0.0000000000000000e+00
130 132       0.0000000000000000e+00
130 133       0.0000000000000000e+00
130 134       0.0000000000000000e+00
130 135       0.0000000000000000e+00
131 131       0.0000000000000000e+00
131 67       0.0000000000000000e+00
131 68       0.0000000000000000e+00
131 69       0.0000000000000000e+00
131 70       0.0000000000000000e+00
131 71       0.0000000000000000e+00
131 72       0.0000000000000000e+00
131 73       0.0000000000000000e+00
131 74       0.0000000000000000e+00
131 75       0.0000000000000000e+00
131 82       0.0000000000000000e+00
131 83       0.0000000000000000e+00
131 84       0.0000000000000000e+00
131 85       0.0000000000000000e+00
131 86       0.0000000000000000e+00
131 87       0.0000000000000000e+00
131 88       0.0000000000000000e+00
131 89       0.0000000000000000e+00
131 90       0.0000000000000000e+00
131 112       0.0000000000000000e+00
131 113       0.0000000000000000e+00
131 114       0.0000000000000000e+00
131 115       0.0000000000000000e+00
131 116       0.0000000000000000e+00
131 117       0.0000000000000000e+00
131 118       0.0000000000000000e+00
131 119       0.0000000000000000e+00
131 120       0.0000000000000000e+00
131 127       0.0000000000000000e+00
131 128       0.0000000000000000e+00
131 129       0.0000000000000000e+00
131 130       0.0000000000000000e+00
131 132       0.0000000000000000e+00
131 133       0.0000000000000000e+00
131 134       0.0000000000000000e+00
131 135       0.0000000000000000e+00
132 132       0.0000000000000000e+00
132 67       0.0000000000000000e+00
132 68       0.0000000000000000e+00
132 69       0.0000000000000000e+00
132 70       0.0000000000000000e+00
132 71       0.0000000000000000e+00
132 72       0.0000000000000000e+00
132 73       0.0000000000000000e+00
132 74       0.0000000000000000e+00
132 75       0.0000000000000000e+00
132 82       0.0000000000000000e+00
132 83       0.0000000000000000e+00
132 84       0.0000000000000000e+00
132 85       0.0000000000000000e+00
132 86       0.0000000000000000e+00
132 87       0.0000000000000000e+00
132 88       0.0000000000000000e+00
132 89       0.0000000000000000e+00
132 90       0.0000000000000000e+00
132 112       0.0000000000000000e+00
132 113       0.0000000000000000e+00
132 114       0.0000000000000000e+00
132 115       0.0000000000000000e+00
132 116       0.0000000000000000e+00
132 117       0.0000000000000000e+00
132 118       0.0000000000000000e+00
132 119       0.0000000000000000e+00
132 120       0.0000000000000000e+00
132 127       0.0000000000000000e+00
132 128       0.0000000000000000e+00
132 129       0.0000000000000000e+00
132 130       0.0000000000000000e+00
132 131       0.0000000000000000e+00
132 133       0.0000000000000000e+00
132 134       0.0000000000000000e+00
132 135       0.0000000000000000e+00
133 133       0.0000000000000000e+00
133 70       0.0000000000000000e+00
133 71       0.0000000000000000e+00
133 72       0.0000000000000000e+00
133 73       0.0000000000000000e+00
133 74       0.0000000000000000e+00
133 75       0.0000000000000000e+00
133 85       0.0000000000000000e+00
133 86       0.0000000000000000e+00
133 87       0.0000000000000000e+00
133 88       0.0000000000000000e+00
133 89       0.0000000000000000e+00
133 90       0.0000000000000000e+00
133 115       0.0000000000000000e+00
133 116       0.0000000000000000e+00
133 117       0.0000000000000000e+00
133 118       0.0000000000000000e+00
133 119       0.0000000000000000e+00
133 120       0.0000000000000000e+00
133 130       0.0000000000000000e+00
133 131       0.0000000000000000e+00
133 132       0.0000000000000000e+00
133 134       0.0000000000000000e+00
133 135       0.0000000000000000e+00
133 388       0.0000000000000000e+00
133 389       0.0000000000000000e+00
133 390       0.0000000000000000e+00
133 391       0.0000000000000000e+00
133 392       0.0000000000000000e+00
133 393       0.0000000000000000e+00
133 397       0.0000000000000000e+00
133 398       0.0000000000000000e+00
133 399       0.0000000000000000e+00
133 400       0.0000000000000000e+00
133 401       0.0000000000000000e+00
133 402       0.0000000000000000e+00
134 134       0.0000000000000000e+00
134 70       0.0000000000000000e+00
134 71       0.0000000000000000e+00
134 72       0.0000000000000000e+00
134 73       0.0000000000000000e+00
134 74       0.0000000000000000e+00
134 75       0.0000000000000000e+00
134 85       0.0000000000000000e+00
134 86       0.0000000000000000e+00
134 87       0.0000000000000000e+00
134 88       0.0000000000000000e+00
134 89       0.0000000000000000e+00
134 90       0.0000000000000000e+00
134 115       0.0000000000000000e+00
134 116       0.0000000000000000e+00
134 117       0.0000000000000000e+00
134 118       0.0000000000000000e+00
134 119       0.0000000000000000e+00
134 120       0.0000000000000000e+00
134 130       0.0000000000000000e+00
134 131       0.0000000000000000e+00
134 132       0.0000000000000000e+00
134 133       0.0000000000000000e+00
134 135       0.0000000000000000e+00
134 388       0.0000000000000000e+00
134 389       0.0000000000000000e+00
134 390       0.0000000000000000e+00
134 391       0.0000000000000000e+00
134 392       0.0000000000000000e+00
134 393       0.0000000000000000e+00
134 397       0.0000000000000000e+00
134 398       0.0000000000000000e+00
134 399       0.0000000000000000e+00
134 400       0.0000000000000000e+00
134 401       0.0000000000000000e+00
134 402       0.0000000000000000e+00
135 135       0.0000000000000000e+00
135 70       0.0000000000000000e+00
135 71       0.0000000000000000e+00
135 72       0.0000000000000000e+00
135 73       0.0000000000000000e+00
135 74       0.0000000000000000e+00
135 75       0.0000000000000000e+00
135 85       0.0000000000000000e+00
135 86       0.0000000000000000e+00
135 87       0.0000000000000000e+00
135 88       0.0000000000000000e+00
135 89       0.0000000000000000e+00
135 90       0.0000000000000000e+00
135 115       0.0000000000000000e+00
135 116       0.0000000000000000e+00
135 117       0.0000000000000000e+00
135 118       0.0000000000000000e+00
135 119       0.0000000000000000e+00
135 120       0.0000000000000000e+00
135 130       0.0000000000000000e+00
135 131       0.0000000000000000e+00
135 132       0.0000000000000000e+00
135 133       0.0000000000000000e+00
135 134       0.0000000000000000e+00
135 388       0.0000000000000000e+00
135 389       0.0000000000000000e+00
135 390       0.0000000000000000e+00
135 391       0.0000000000000000e+00
135 392       0.0000000000000000e+00
135 393       0.0000000000000000e+00
135 397       0.0000000000000000e+00
135 398       0.0000000000000000e+00
135 399       0.0000000000000000e+00
135 400       0.0000000000000000e+00
135 401       0.0000000000000000e+00
135 402       0.0000000000000000e+00
136 136       0.0000000000000000e+00
136 137       0.0000000000000000e+00
136 138       0.0000000000000000e+00
136 139       0.0000000000000000e+00
136 140       0.0000000000000000e+00
136 141       0.0000000000000000e+00
136 151       0.0000000000000000e+00
136 152       0.0000000000000000e+00
136 153       0.0000000000000000e+00
136 154       0.0000000000000000e+00
136 155       0.0000000000000000e+00
136 156       0.0000000000000000e+00
136 196       0.0000000000000000e+00
136 197       0.0000000000000000e+00
136 198       0.0000000000000000e+00
136 199       0.0000000000000000e+00
136 200       0.0000000000000000e+00
136 201       0.0000000000000000e+00
136 211       0.0000000000000000e+00
136 212       0.0000000000000000e+00
136 213       0.0000000000000000e+00
136 214       0.0000000000000000e+00
136 215       0.0000000000000000e+00
136 216       0.0000000000000000e+00
136 376       0.0000000000000000e+00
136 377       0.0000000000000000e+00
136 378       0.0000000000000000e+00
136 403       0.0000000000000000e+00
136 404       0.0000000000000000e+00
136 405       0.0000000000000000e+00
136 430       0.0000000000000000e+00
136 431       0.0000000000000000e+00
136 432       0.0000000000000000e+00
137 137       0.0000000000000000e+00
137 136       0.0000000000000000e+00
137 138       0.0000000000000000e+00
137 139       0.0000000000000000e+00
137 140       0.0000000000000000e+00
137 141       0.0000000000000000e+00
137 151       0.0000000000000000e+00
137 152       0.0000000000000000e+00
137 153       0.0000000000000000e+00
137 154       0.0000000000000000e+00
137 155       0.0000000000000000e+00
137 156       0.0000000000000000e+00
137 196       0.0000000000000000e+00
137 197       0.0000000000000000e+00
137 198       0.0000000000000000e+00
137 199       0.0000000000000000e+00
137 200       0.0000000000000000e+00
137 201       0.0000000000000000e+00
137 211       0.0000000000000000e+00
137 212       0.0000000000000000e+00
137 213       0.0000000000000000e+00
137 214       0.0000000000000000e+00
137 215       0.0000000000000000e+00
137 216       0.0000000000000000e+00
137 376       0.0000000000000000e+00
137 377       0.0000000000000000e+00
137 378       0.0000000000000000e+00
137 403       0.0000000000000000e+00
137 404       0.0000000000000000e+00
137 405       0.0000000000000000e+00
137 430       0.0000000000000000e+00
137 431       0.0000000000000000e+00
137 432       0.0000000000000000e+00
138 138       0.0000000000000000e+00
138 136       0.0000000000000000e+00
138 137       0.0000000000000000e+00
138 139       0.0000000000000000e+00
138 140       0.0000000000000000e+00
138 141       0.0000000000000000e+00
138 151       0.0000000000000000e+00
138 152       0.0000000000000000e+00
138 153       0.0000000000000000e+00
138 154       0.0000000000000000e+00
138 155       0.0000000000000000e+00
138 156       0.0000000000000000e+00
138 196       0.0000000000000000e+00
138 197       0.0000000000000000e+00
138 198       0.0000000000000000e+00
138 199       0.0000000000000000e+00
138 200       0.0000000000000000e+00
138 201       0.0000000000000000e+00
138 211       0.0000000000000000e+00
138 212       0.0000000000000000e+00
138 213       0.0000000000000000e+00
138 214       0.0000000000000000e+00
138 215       0.0000000000000000e+00
138 216       0.0000000000000000e+00
138 376       0.0000000000000000e+00
138 377       0.0000000000000000e+00
138 378       0.0000000000000000e+00
138 403       0.0000000000000000e+00
138 404       0.0000000000000000e+00
138 405       0.0000000000000000e+00
138 430       0.0000000000000000e+00
138 431       0.0000000000000000e+00
138 432       0.0000000000000000e+00
139 139       0.0000000000000000e+00
139 136       0.0000000000000000e+00
139 137       0.0000000000000000e+00
139 138       0.0000000000000000e+00
139 140       0.0000000000000000e+00
139 141       0.0000000000000000e+00
139 142       0.0000000000000000e+00
139 143       0.0000000000000000e+00
139 144       0.0000000000000000e+00
139 151       0.0000000000000000e+00
139 152       0.0000000000000000e+00
139 153       0.0000000000000000e+00
139 154       0.0000000000000000e+00
139 155       0.0000000000000000e+00
139 156       0.0000000000000000e+00
139 157       0.0000000000000000e+00
139 158       0.0000000000000000e+00
139 159       0.0000000000000000e+00
139 196       0.0000000000000000e+00
139 197       0.0000000000000000e+00
139 198       0.0000000000000000e+00
139 199       0.0000000000000000e+00
139 200       0.0000000000000000e+00
139 201       0.0000000000000000e+00
139 202       0.0000000000000000e+00
139 203       0.0000000000000000e+00
139 204       0.0000000000000000e+00
139 211       0.0000000000000000e+00
139 212       0.0000000000000000e+00
139 213       0.0000000000000000e+00
139 214       0.0000000000000000e+00
139 215       0.0000000000000000e+00
139 216       0.0000000000000000e+00
139 217       0.0000000000000000e+00
139 218       0.0000000000000000e+00
139 219       0.0000000000000000e+00
139 403       0.0000000000000000e+00
139 404       0.0000000000000000e+00
139 405       0.0000000000000000e+00
140 140       0.0000000000000000e+00
140 136       0.0000000000000000e+00
140 137       0.0000000000000000e+00
140 138       0.0000000000000000e+00
140 139       0.0000000000000000e+00
140 141       0.0000000000000000e+00
140 142       0.0000000000000000e+00
140 143       0.0000000000000000e+00
140 144       0.0000000000000000e+00
140 151       0.0000000000000000e+00
140 152       0.0000000000000000e+00
140 153       0.0000000000000000e+00
140 154       0.0000000000000000e+00
140 155       0.0000000000000000e+00
140 156       0.0000000000000000e+00
140 157       0.0000000000000000e+00
140 158       0.0000000000000000e+00
140 159       0.0000000000000000e+00
140 196       0.0000000000000000e+00
140 197       0.0000000000000000e+00
140 198       0.0000000000000000e+00
140 199       0.0000000000000000e+00
140 200       0.0000000000000000e+00
140 201       0.0000000000000000e+00
140 202       0.0000000000000000e+00
140 203       0.0000000000000000e+00
140 204       0.0000000000000000e+00
140 211       0.0000000000000000e+00
140 212       0.0000000000000000e+00
140 213       0.0000000000000000e+00
140 214       0.0000000000000000e+00
140 215       0.0000000000000000e+00
140 216       0.0000000000000000e+00
140 217       0.0000000000000000e+00
140 218       0.0000000000000000e+00
140 219       0.0000000000000000e+00
140 403       0.0000000000000000e+00
140 404       0.0000000000000000e+00
140 405       0.0000000000000000e+00
141 141       0.0000000000000000e+00
141 136       0.0000000000000000e+00
141 137       0.0000000000000000e+00
141 138       0.0000000000000000e+00
141 139       0.0000000000000000e+00
141 140       0.0000000000000000e+00
141 142       0.0000000000000000e+00
141 143       0.0000000000000000e+00
141 144       0.0000000000000000e+00
141 151       0.0000000000000000e+00
141 152       0.0000000000000000e+00
141 153       0.0000000000000000e+00
141 154       0.0000000000000000e+00
141 155       0.0000000000000000e+00
141 156       0.0000000000000000e+00
141 157       0.0000000000000000e+00
141 158       0.0000000000000000e+00
141 159       0.0000000000000000e+00
141 196       0.0000000000000000e+00
141 197       0.0000000000000000e+00
141 198       0.0000000000000000e+00
141 199       0.0000000000000000e+00
141 200       0.0000000000000000e+00
141 201       0.0000000000000000e+00
141 202       0.0000000000000000e+00
141 203       0.0000000000000000e+00
141 204       0.0000000000000000e+00
141 211       0.0000000000000000e+00
141 212       0.0000000000000000e+00
141 213       0.0000000000000000e+00
141 214       0.0000000000000000e+00
141 215       0.0000000000000000e+00
141 216       0.0000000000000000e+00
141 217       0.0000000000000000e+00
141 218       0.0000000000000000e+00
141 219       0.0000000000000000e+00
141 403       0.0000000000000000e+00
141 404       0.0000000000000000e+00
141 405       0.0000000000000000e+00
142 142       0.0000000000000000e+00
142 139       0.0000000000000000e+00
142 140       0.0000000000000000e+00
142 141       0.0000000000000000e+00
142 143       0.0000000000000000e+00
142 144       0.0000000000000000e+00
142 145       0.0000000000000000e+00
142 146       0.0000000000000000e+00
142 147       0.0000000000000000e+00
142 154       0.0000000000000000e+00
142 155       0.0000000000000000e+00
142 156       0.0000000000000000e+00
142 157       0.0000000000000000e+00
142 158       0.0000000000000000e+00
142 159       0.0000000000000000e+00
142 160       0.0000000000000000e+00
142 161       0.0000000000000000e+00
142 162       0.0000000000000000e+00
142 199       0.0000000000000000e+00
142 200       0.0000000000000000e+00
142 201       0.0000000000000000e+00
142 202       0.0000000000000000e+00
142 203       0.0000000000000000e+00
142 204       0.0000000000000000e+00
142 205       0.0000000000000000e+00
142 206       0.0000000000000000e+00
142 207       0.0000000000000000e+00
142 214       0.0000000000000000e+00
142 215       0.0000000000000000e+00
142 216       0.0000000000000000e+00
142 217       0.0000000000000000e+00
142 218       0.0000000000000000e+00
142 219       0.0000000000000000e+00
142 220       0.0000000000000000e+00
142 221       0.0000000000000000e+00
142 222       0.0000000000000000e+00
143 143       0.0000000000000000e+00
143 139       0.0000000000000000e+00
143 140       0.0000000000000000e+00
143 141       0.0000000000000000e+00
143 142       0.0000000000000000e+00
143 144       0.0000000000000000e+00
143 145       0.0000000000000000e+00
143 146       0.0000000000000000e+00
143 147       0.0000000000000000e+00
143 154       0.0000000000000000e+00
143 155       0.0000000000000000e+00
143 156       0.0000000000000000e+00
143 157       0.0000000000000000e+00
143 158       0.0000000000000000e+00
143 159       0.0000000000000000e+00
143 160       0.0000000000000000e+00
143 161       0.0000000000000000e+00
143 162       0.0000000000000000e+00
143 199       0.0000000000000000e+00
143 200       0.0000000000000000e+00
143 201       0.0000000000000000e+00
143 202       0.0000000000000000e+00
143 203       0.0000000000000000e+00
143 204       0.0000000000000000e+00
143 205       0.0000000000000000e+00
143 206       0.0000000000000000e+00
143 207       0.0000000000000000e+00
143 214       0.0000000000000000e+00
143 215       0.0000000000000000e+00
143 216       0.0000000000000000e+00
143 217       0.0000000000000000e+00
143 218       0.0000000000000000e+00
143 219       0.0000000000000000e+00
143 220       0.0000000000000000e+00
143 221       0.0000000000000000e+00
143 222       0.0000000000000000e+00
144 144       0.0000000000000000e+00
144 139       0.0000000000000000e+00
144 140       0.0000000000000000e+00
144 141       0.0000000000000000e+00
144 142       0.0000000000000000e+00
144 143       0.0000000000000000e+00
144 145       0.0000000000000000e+00
144 146       0.0000000000000000e+00
144 147       0.0000000000000000e+00
144 154       0.0000000000000000e+00
144 155       0.0000000000000000e+00
144 156       0.0000000000000000e+00
144 157       0.0000000000000000e+00
144 158       0.0000000000000000e+00
144 159       0.0000000000000000e+00
144 160       0.0000000000000000e+00
144 161       0.0000000000000000e+00
144 162       0.0000000000000000e+00
144 199       0.0000000000000000e+00
144 200       0.0000000000000000e+00
144 201       0.0000000000000000e+00
144 202       0.0000000000000000e+00
144 203       0.0000000000000000e+00
144 204       0.0000000000000000e+00
144 205       0.0000000000000000e+00
144 206       0.0000000000000000e+00
144 207       0.0000000000000000e+00
144 214       0.0000000000000000e+00
144 215       0.0000000000000000e+00
144 216       0.0000000000000000e+00
144 217       0.0000000000000000e+00
144 218       0.0000000000000000e+00
144 219       0.0000000000000000e+00
144 220       0.0000000000000000e+00
144 221       0.0000000000000000e+00
144 222       0.0000000000000000e+00
145 145       0.0000000000000000e+00
145 142       0.0000000000000000e+00
145 143       0.0000000000000000e+00
145 144       0.0000000000000000e+00
145 146       0.0000000000000000e+00
145 147       0.0000000000000000e+00
145 148       0.0000000000000000e+00
145 149       0.0000000000000000e+00
145 150       0.0000000000000000e+00
145 157       0.0000000000000000e+00
145 158       0.0000000000000000e+00
145 159       0.0000000000000000e+00
145 160       0.0000000000000000e+00
145 161       0.0000000000000000e+00
145 162       0.0000000000000000e+00
145 163       0.0000000000000000e+00
145 164       0.0000000000000000e+00
145 165       0.0000000000000000e+00
145 202       0.0000000000000000e+00
145 203       0.0000000000000000e+00
145 204       0.0000000000000000e+00
145 205       0.0000000000000000e+00
145 206       0.0000000000000000e+00
145 207       0.0000000000000000e+00
145 208       0.0000000000000000e+00
145 209       0.0000000000000000e+00
145 210       0.0000000000000000e+00
145 217       0.0000000000000000e+00
145 218       0.0000000000000000e+00
145 219       0.0000000000000000e+00
145 220       0.0000000000000000e+00
145 221       0.0000000000000000e+00
145 222       0.0000000000000000e+00
145 223       0.0000000000000000e+00
145 224       0.0000000000000000e+00
145 225       0.0000000000000000e+00
146 146       0.0000000000000000e+00
146 142       0.0000000000000000e+00
146 143       0.0000000000000000e+00
146 144       0.0000000000000000e+00
146 145       0.0000000000000000e+00
146 147       0.0000000000000000e+00
146 148       0.0000000000000000e+00
146 149       0.0000000000000000e+00
146 150       0.0000000000000000e+00
146 157       0.0000000000000000e+00
146 158       0.0000000000000000e+00
146 159       0.0000000000000000e+00
146 160       0.0000000000000000e+00
146 161       0.0000000000000000e+00
146 162       0.0000000000000000e+00
146 163       0.0000000000000000e+00
146 164       0.0000000000000000e+00
146 165       0.0000000000000000e+00
146 202       0.0000000000000000e+00
146 203       0.0000000000000000e+00
146 204       0.0000000000000000e+00
146 205       0.0000000000000000e+00
146 206       0.0000000000000000e+00
146 207       0.0000000000000000e+00
146 208       0.0000000000000000e+00
146 209       0.0000000000000000e+00
146 210       0.0000000000000000e+00
146 217       0.0000000000000000e+00
146 218       0.0000000000000000e+00
146 219       0.0000000000000000e+00
146 220       0.0000000000000000e+00
146 221       0.0000000000000000e+00
146 222       0.0000000000000000e+00
146 223       0.0000000000000000e+00
146 224       0.0000000000000000e+00
146 225       0.0000000000000000e+00
147 147       0.0000000000000000e+00
147 142       0.0000000000000000e+00
147 143       0.0000000000000000e+00
147 144       0.0000000000000000e+00
147 145       0.0000000000000000e+00
147 146       0.0000000000000000e+00
147 148       0.0000000000000000e+00
147 149       0.0000000000000000e+00
147 150       0.0000000000000000e+00
147 157       0.0000000000000000e+00
147 158       0.0000000000000000e+00
147 159       0.0000000000000000e+00
147 160       0.0000000000000000e+00
147 161       0.0000000000000000e+00
147 162       0.0000000000000000e+00
147 163       0.0000000000000000e+00
147 164       0.0000000000000000e+00
147 165       0.0000000000000000e+00
147 202       0.0000000000000000e+00
147 203       0.0000000000000000e+00
147 204       0.0000000000000000e+00
147 205       0.0000000000000000e+00
147 206       0.0000000000000000e+00
147 207       0.0000000000000000e+00
147 208       0.0000000000000000e+00
147 209       0.0000000000000000e+00
147 210       0.0000000000000000e+00
147 217       0.0000000000000000e+00
147 218       0.0000000000000000e+00
147 219       0.0000000000000000e+00
147 220       0.0000000000000000e+00
147 221       0.0000000000000000e+00
147 222       0.0000000000000000e+00
147 223       0.0000000000000000e+00
147 224       0.0000000000000000e+00
147 225       0.0000000000000000e+00
148 148       0.0000000000000000e+00
148 145       0.0000000000000000e+00
148 146       0.0000000000000000e+00
148 147       0.0000000000000000e+00
148 149       0.0000000000000000e+00
148 150       0.0000000000000000e+00
148 160       0.0000000000000000e+00
148 161       0.0000000000000000e+00
148 162       0.0000000000000000e+00
148 163       0.0000000000000000e+00
148 164       0.0000000000000000e+00
148 165       0.0000000000000000e+00
148 205       0.0000000000000000e+00
148 206       0.0000000000000000e+00
148 207       0.0000000000000000e+00
148 208       0.0000000000000000e+00
148 209       0.0000000000000000e+00
148 210       0.0000000000000000e+00
148 220       0.0000000000000000e+00
148 221       0.0000000000000000e+00
148 222       0.0000000000000000e+00
148 223       0.0000000000000000e+00
148 224       0.0000000000000000e+00
148 225       0.0000000000000000e+00
149 149       0.0000000000000000e+00
149 145       0.0000000000000000e+00
149 146       0.0000000000000000e+00
149 147       0.0000000000000000e+00
149 148       0.0000000000000000e+00
149 150       0.0000000000000000e+00
149 160       0.0000000000000000e+00
149 161       0.0000000000000000e+00
149 162       0.0000000000000000e+00
149 163       0.0000000000000000e+00
149 164       0.0000000000000000e+00
149 165       0.0000000000000000e+00
149 205       0.0000000000000000e+00
149 206       0.0000000000000000e+00
149 207       0.0000000000000000e+00
149 208       0.0000000000000000e+00
149 209       0.0000000000000000e+00
149 210       0.0000000000000000e+00
149 220       0.0000000000000000e+00
149 221       0.0000000000000000e+00
149 222       0.0000000000000000e+00
149 223       0.0000000000000000e+00
149 224       0.0000000000000000e+00
149 225       0.0000000000000000e+00
150 150       0.0000000000000000e+00
150 145       0.0000000000000000e+00
150 146       0.0000000000000000e+00
150 147       0.0000000000000000e+00
150 148       0.0000000000000000e+00
150 149       0.0000000000000000e+00
150 160       0.0000000000000000e+00
150 161       0.0000000000000000e+00
150 162       0.0000000000000000e+00
150 163       0.0000000000000000e+00
150 164       0.0000000000000000e+00
150 165       0.0000000000000000e+00
150 205       0.0000000000000000e+00
150 206       0.0000000000000000e+00
150 207       0.0000000000000000e+00
150 208       0.0000000000000000e+00
150 209       0.0000000000000000e+00
150 210       0.0000000000000000e+00
150 220       0.0000000000000000e+00
150 221       0.0000000000000000e+00
150 222       0.0000000000000000e+00
150 223       0.0000000000000000e+00
150 224       0.0000000000000000e+00
150 225       0.0000000000000000e+00
151 151       0.0000000000000000e+00
151 136       0.0000000000000000e+00
151 137       0.0000000000000000e+00
151 138       0.0000000000000000e+00
151 139       0.0000000000000000e+00
151 140       0.0000000000000000e+00
151 141       0.0000000000000000e+00
151 152       0.0000000000000000e+00
151 153       0.0000000000000000e+00
151 154       0.0000000000000000e+00
151 155       0.0000000000000000e+00
151 156       0.0000000000000000e+00
151 166       0.0000000000000000e+00
151 167       0.0000000000000000e+00
151 168       0.0000000000000000e+00
151 169       0.0000000000000000e+00
151 170       0.0000000000000000e+00
151 171       0.0000000000000000e+00
151 196       0.0000000000000000e+00
151 197       0.0000000000000000e+00
151 198       0.0000000000000000e+00
151 199       0.0000000000000000e+00
151 200       0.0000000000000000e+00
151 201       0.0000000000000000e+00
151 211       0.0000000000000000e+00
151 212       0.0000000000000000e+00
151 213       0.0000000000000000e+00
151 214       0.0000000000000000e+00
151 215       0.0000000000000000e+00
151 216       0.0000000000000000e+00
151 226       0.0000000000000000e+00
151 227       0.0000000000000000e+00
151 228       0.0000000000000000e+00
151 229       0.0000000000000000e+00
151 230       0.0000000000000000e+00
151 231       0.0000000000000000e+00
151 376       0.0000000000000000e+00
151 377       0.0000000000000000e+00
151 378       0.0000000000000000e+00
151 379       0.0000000000000000e+00
151 380       0.0000000000000000e+00
151 381       0.0000000000000000e+00
151 403       0.0000000000000000e+00
151 404       0.0000000000000000e+00
151 405       0.0000000000000000e+00
151 406       0.0000000000000000e+00
151 407       0.0000000000000000e+00
151 408       0.0000000000000000e+00
151 430       0.0000000000000000e+00
151 431       0.0000000000000000e+00
151 432       0.0000000000000000e+00
151 433       0.0000000000000000e+00
151 434       0.0000000000000000e+00
151 435       0.0000000000000000e+00
152 152       0.0000000000000000e+00
152 136       0.0000000000000000e+00
152 137       0.0000000000000000e+00
152 138       0.0000000000000000e+00
152 139       0.0000000000000000e+00
152 140       0.0000000000000000e+00
152 141       0.0000000000000000e+00
152 151       0.0000000000000000e+00
152 153       0.0000000000000000e+00
152 154       0.0000000000000000e+00
152 155       0.0000000000000000e+00
152 156       0.0000000000000000e+00
152 166       0.0000000000000000e+00
152 167       0.0000000000000000e+00
152 168       0.0000000000000000e+00
152 169       0.0000000000000000e+00
152 170       0.0000000000000000e+00
152 171       0.0000000000000000e+00
152 196       0.0000000000000000e+00
152 197       0.0000000000000000e+00
152 198       0.0000000000000000e+00
152 199       0.0000000000000000e+00
152 200       0.0000000000000000e+00
152 201       0.0000000000000000e+00
152 211       0.0000000000000000e+00
152 212       0.0000000000000000e+00
152 213       0.0000000000000000e+00
152 214       0.0000000000000000e+00
152 215       0.0000000000000000e+00
152 216       0.0000000000000000e+00
152 226       0.0000000000000000e+00
152 227       0.0000000000000000e+00
152 228       0.0000000000000000e+00
152 229       0.0000000000000000e+00
152 230       0.0000000000000000e+00
152 231       0.0000000000000000e+00
152 376       0.0000000000000000e+00
152 377       0.0000000000000000e+00
152 378       0.0000000000000000e+00
152 379       0.0000000000000000e+00
152 380       0.0000000000000000e+00
152 381       0.0000000000000000e+00
152 403       0.0000000000000000e+00
152 404       0.0000000000000000e+00
152 405       0.0000000000000000e+00
152 406       0.0000000000000000e+00
152 407       0.0000000000000000e+00
152 408       0.0000000000000000e+00
152 430       0.0000000000000000e+00
152 431       0.0000000000000000e+00
152 432       0.0000000000000000e+00
152 433       0.0000000000000000e+00
152 434       0.0000000000000000e+00
152 435       0.0000000000000000e+00
153 153       0.0000000000000000e+00
153 136       0.0000000000000000e+00
153 137       0.0000000000000000e+00
153 138       0.0000000000000000e+00
153 139       0.0000000000000000e+00
153 140       0.0000000000000000e+00
153 141       0.0000000000000000e+00
153 151       0.0000000000000000e+00
153 152       0.0000000000000000e+00
153 154       0.0000000000000000e+00
153 155       0.0000000000000000e+00
153 156       0.0000000000000000e+00
153 166       0.0000000000000000e+00
153 167       0.0000000000000000e+00
153 168       0.0000000000000000e+00
153 169       0.0000000000000000e+00
153 170       0.0000000000000000e+00
153 171       0.0000000000000000e+00
153 196       0.0000000000000000e+00
153 197       0.0000000000000000e+00
153 198       0.0000000000000000e+00
153 199       0.0000000000000000e+00
153 200       0.0000000000000000e+00
153 201       0.0000000000000000e+00
153 211       0.0000000000000000e+00
153 212       0.0000000000000000e+00
153 213       0.0000000000000000e+00
153 214       0.0000000000000000e+00
153 215       0.0000000000000000e+00
153 216       0.0000000000000000e+00
153 226       0.0000000000000000e+00
153 227       0.0000000000000000e+00
153 228       0.0000000000000000e+00
153 229       0.0000000000000000e+00
153 230       0.0000000000000000e+00
153 231       0.0000000000000000e+00
153 376       0.0000000000000000e+00
153 377       0.0000000000000000e+00
153 378       0.0000000000000000e+00
153 379       0.0000000000000000e+00
153 380       0.0000000000000000e+00
153 381       0.0000000000000000e+00
153 403       0.0000000000000000e+00
153 404       0.0000000000000000e+00
153 405       0.0000000000000000e+00
153 406       0.0000000000000000e+00
153 407       0.0000000000000000e+00
153 408       0.0000000000000000e+00
153 430       0.0000000000000000e+00
153 431       0.0000000000000000e+00
153 432       0.0000000000000000e+00
153 433       0.0000000000000000e+00
153 434       0.0000000000000000e+00
153 435       0.0000000000000000e+00
154 154       0.0000000000000000e+00
154 136       0.0000000000000000e+00
154 137       0.0000000000000000e+00
154 138       0.0000000000000000e+00
154 139       0.0000000000000000e+00
154 140       0.0000000000000000e+00
154 141       0.0000000000000000e+00
154 142       0.0000000000000000e+00
154 143       0.0000000000000000e+00
154 144       0.0000000000000000e+00
154 151       0.0000000000000000e+00
154 152       0.0000000000000000e+00
154 153       0.0000000000000000e+00
154 155       0.0000000000000000e+00
154 156       0.0000000000000000e+00
154 157       0.0000000000000000e+00
154 158       0.0000000000000000e+00
154 159       0.0000000000000000e+00
154 166       0.0000000000000000e+00
154 167       0.0000000000000000e+00
154 168       0.0000000000000000e+00
154 169       0.0000000000000000e+00
154 170       0.0000000000000000e+00
154 171       0.0000000000000000e+00
154 172       0.0000000000000000e+00
154 173       0.0000000000000000e+00
154 174       0.0000000000000000e+00
154 196       0.0000000000000000e+00
154 197       0.0000000000000000e+00
154 198       0.0000000000000000e+00
154 199       0.0000000000000000e+00
154 200       0.0000000000000000e+00
154 201       0.0000000000000000e+00
154 202       0.0000000000000000e+00
154 203       0.0000000000000000e+00
154 204       0.0000000000000000e+00
154 211       0.0000000000000000e+00
154 212       0.0000000000000000e+00
154 213       0.0000000000000000e+00
154 214       0.0000000000000000e+00
154 215       0.0000000000000000e+00
154 216       0.0000000000000000e+00
154 217       0.0000000000000000e+00
154 218       0.0000000000000000e+00
154 219       0.0000000000000000e+00
154 226       0.0000000000000000e+00
154 227       0.0000000000000000e+00
154 228       0.0000000000000000e+00
154 229       0.0000000000000000e+00
154 230       0.0000000000000000e+00
154 231       0.0000000000000000e+00
154 232       0.0000000000000000e+00
154 233       0.0000000000000000e+00
154 234       0.0000000000000000e+00
154 403       0.0000000000000000e+00
154 404       0.0000000000000000e+00
154 405       0.0000000000000000e+00
154 406       0.0000000000000000e+00
154 407       0.0000000000000000e+00
154 408       0.0000000000000000e+00
155 155       0.0000000000000000e+00
155 136       0.0000000000000000e+00
155 137       0.0000000000000000e+00
155 138       0.0000000000000000e+00
155 139       0.0000000000000000e+00
155 140       0.0000000000000000e+00
155 141       0.0000000000000000e+00
155 142       0.0000000000000000e+00
155 143       0.0000000000000000e+00
155 144       0.0000000000000000e+00
155 151       0.0000000000000000e+00
155 152       0.0000000000000000e+00
155 153       0.0000000000000000e+00
155 154       0.0000000000000000e+00
155 156       0.0000000000000000e+00
155 157       0.0000000000000000e+00
155 158       0.0000000000000000e+00
155 159       0.0000000000000000e+00
155 166       0.0000000000000000e+00
155 167       0.0000000000000000e+00
155 168       0.0000000000000000e+00
155 169       0.0000000000000000e+00
155 170       0.0000000000000000e+00
155 171       0.0000000000000000e+00
155 172       0.0000000000000000e+00
155 173       0.0000000000000000e+00
155 174       0.0000000000000000e+00
155 196       0.0000000000000000e+00
155 197       0.0000000000000000e+00
155 198       0.0000000000000000e+00
155 199       0.0000000000000000e+00
155 200       0.0000000000000000e+00
155 201       0.0000000000000000e+00
155 202       0.0000000000000000e+00
155 203       0.0000000000000000e+00
155 204       0.0000000000000000e+00
155 211       0.0000000000000000e+00
155 212       0.0000000000000000e+00
155 213       0.0000000000000000e+00
155 214       0.0000000000000000e+00
155 215       0.0000000000000000e+00
155 216       0.0000000000000000e+00
155 217       0.0000000000000000e+00
155 218       0.0000000000000000e+00
155 219       0.0000000000000000e+00
155 226       0.0000000000000000e+00
155 227       0.0000000000000000e+00
155 228       0.0000000000000000e+00
155 229       0.0000000000000000e+00
155 230       0.0000000000000000e+00
155 231       0.0000000000000000e+00
155 232       0.0000000000000000e+00
155 233       0.0000000000000000e+00
155 234       0.0000000000000000e+00
155 403       0.0000000000000000e+00
155 404       0.0000000000000000e+00
155 405       0.0000000000000000e+00
155 406       0.0000000000000000e+00
155 407       0.0000000000000000e+00
155 408       0.0000000000000000e+00
156 156       0.0000000000000000e+00
156 136       0.0000000000000000e+00
156 137       0.0000000000000000e+00
156 138       0.0000000000000000e+00
156 139       0.0000000000000000e+00
156 140       0.0000000000000000e+00
156 141       0.0000000000000000e+00
156 142       0.0000000000000000e+00
156 143       0.0000000000000000e+00
156 144       0.0000000000000000e+00
156 151       0.0000000000000000e+00
156 152       0.0000000000000000e+00
156 153       0.0000000000000000e+00
156 154       0.0000000000000000e+00
156 155       0.0000000000000000e+00
156 157       0.0000000000000000e+00
156 158       0.0000000000000000e+00
156 159       0.0000000000000000e+00
156 166       0.0000000000000000e+00
156 167       0.0000000000000000e+00
156 168       0.0000000000000000e+00
156 169       0.0000000000000000e+00
156 170       0.0000000000000000e+00
156 171       0.0000000000000000e+00
156 172       0.0000000000000000e+00
156 173       0.0000000000000000e+00
156 174       0.0000000000000000e+00
156 196       0.0000000000000000e+00
156 197       0.0000000000000000e+00
156 198       0.0000000000000000e+00
156 199       0.0000000000000000e+00
156 200       0.0000000000000000e+00
156 201       0.0000000000000000e+00
156 202       0.0000000000000000e+00
156 203       0.0000000000000000e+00
156 204       0.0000000000000000e+00
156 211       0.0000000000000000e+00
156 212       0.0000000000000000e+00
156 213       0.0000000000000000e+00
156 214       0.0000000000000000e+00
156 215       0.0000000000000000e+00
156 216       0.0000000000000000e+00
156 217       0.0000000000000000e+00
156 218       0.0000000000000000e+00
156 219       0.0000000000000000e+00
156 226       0.0000000000000000e+00
156 227       0.0000000000000000e+00
156 228       0.0000000000000000e+00
156 229       0.0000000000000000e+00
156 230       0.0000000000000000e+00
156 231       0.0000000000000000e+00
156 232       0.0000000000000000e+00
156 233       0.0000000000000000e+00
156 234       0.0000000000000000e+00
156 403       0.0000000000000000e+00
156 404       0.0000000000000000e+00
156 405       0.0000000000000000e+00
156 406       0.0000000000000000e+00
156 407       0.0000000000000000e+00
156 408       0.0000000000000000e+00
157 157       0.0000000000000000e+00
157 139       0.0000000000000000e+00
157 140       0.0000000000000000e+00
157 141       0.0000000000000000e+00
157 142       0.0000000000000000e+00
157 143       0.0000000000000000e+00
157 144       0.0000000000000000e+00
157 145       0.0000000000000000e+00
157 146       0.0000000000000000e+00
157 147       0.0000000000000000e+00
157 154       0.0000000000000000e+00
157 155       0.0000000000000000e+00
157 156       0.0000000000000000e+00
157 158       0.0000000000000000e+00
157 159       0.0000000000000000e+00
157 160       0.0000000000000000e+00
157 161       0.0000000000000000e+00
157 162       0.0000000000000000e+00
157 169       0.0000000000000000e+00
157 170       0.0000000000000000e+00
157 171       0.0000000000000000e+00
157 172       0.0000000000000000e+00
157 173       0.0000000000000000e+00
157 174       0.0000000000000000e+00
157 175       0.0000000000000000e+00
157 176       0.0000000000000000e+00
157 177       0.0000000000000000e+00
157 199       0.0000000000000000e+00
157 200       0.0000000000000000e+00
157 201       0.0000000000000000e+00
157 202       0.0000000000000000e+00
157 203       0.0000000000000000e+00
157 204       0.0000000000000000e+00
157 205       0.0000000000000000e+00
157 206       0.0000000000000000e+00
157 207       0.0000000000000000e+00
157 214       0.0000000000000000e+00
157 215       0.0000000000000000e+00
157 216       0.0000000000000000e+00
157 217       0.0000000000000000e+00
157 218       0.0000000000000000e+00
157 219       0.0000000000000000e+00
157 220       0.0000000000000000e+00
157 221       0.0000000000000000e+00
157 222       0.0000000000000000e+00
157 229       0.0000000000000000e+00
157 230       0.0000000000000000e+00
157 231       0.0000000000000000e+00
157 232       0.0000000000000000e+00
157 233       0.0000000000000000e+00
157 234       0.0000000000000000e+00
157 235       0.0000000000000000e+00
157 236       0.0000000000000000e+00
157 237       0.0000000000000000e+00
158 158       0.0000000000000000e+00
158 139       0.0000000000000000e+00
158 140       0.0000000000000000e+00
158 141       0.0000000000000000e+00
158 142       0.0000000000000000e+00
158 143       0.0000000000000000e+00
158 144       0.0000000000000000e+00
158 145       0.0000000000000000e+00
158 146       0.0000000000000000e+00
158 147       0.0000000000000000e+00
158 154       0.0000000000000000e+00
158 155       0.0000000000000000e+00
158 156       0.0000000000000000e+00
158 157       0.0000000000000000e+00
158 159       0.0000000000000000e+00
158 160       0.0000000000000000e+00
158 161       0.0000000000000000e+00
158 162       0.0000000000000000e+00
158 169       0.0000000000000000e+00
158 170       0.0000000000000000e+00
158 171       0.0000000000000000e+00
158 172       0.0000000000000000e+00
158 173       0.0000000000000000e+00
158 174       0.0000000000000000e+00
158 175       0.0000000000000000e+00
158 176       0.0000000000000000e+00
158 177       0.0000000000000000e+00
158 199       0.0000000000000000e+00
158 200       0.0000000000000000e+00
158 201       0.0000000000000000e+00
158 202       0.0000000000000000e+00
158 203       0.0000000000000000e+00
158 204       0.0000000000000000e+00
158 205       0.0000000000000000e+00
158 206       0.0000000000000000e+00
158 207       0.0000000000000000e+00
158 214       0.0000000000000000e+00
158 215       0.0000000000000000e+00
158 216       0.0000000000000000e+00
158 217       0.0000000000000000e+00
158 218       0.0000000000000000e+00
158 219       0.0000000000000000e+00
158 220       0.0000000000000000e+00
158 221       0.0000000000000000e+00
158 222       0.0000000000000000e+00
158 229       0.0000000000000000e+00
158 230       0.0000000000000000e+00
158 231       0.0000000000000000e+00
158 232       0.0000000000000000e+00
158 233       0.0000000000000000e+00
158 234       0.0000000000000000e+00
158 235       0.0000000000000000e+00
158 236       0.0000000000000000e+00
158 237       0.0000000000000000e+00
159 159       0.0000000000000000e+00
159 139       0.0000000000000000e+00
159 140       0.0000000000000000e+00
159 141       0.0000000000000000e+00
159 142       0.0000000000000000e+00
159 143       0.0000000000000000e+00
159 144       0.0000000000000000e+00
159 145       0.0000000000000000e+00
159 146       0.0000000000000000e+00
159 147       0.0000000000000000e+00
159 154       0.0000000000000000e+00
159 155       0.0000000000000000e+00
159 156       0.0000000000000000e+00
159 157       0.0000000000000000e+00
159 158       0.0000000000000000e+00
159 160       0.0000000000000000e+00
159 161       0.0000000000000000e+00
159 162       0.0000000000000000e+00
159 169       0.0000000000000000e+00
159 170       0.0000000000000000e+00
159 171       0.0000000000000000e+00
159 172       0.0000000000000000e+00
159 173       0.0000000000000000e+00
159 174       0.0000000000000000e+00
159 175       0.0000000000000000e+00
159 176       0.0000000000000000e+00
159 177       0.0000000000000000e+00
159 199       0.0000000000000000e+00
159 200       0.0000000000000000e+00
159 201       0.0000000000000000e+00
159 202       0.0000000000000000e+00
159 203       0.0000000000000000e+00
159 204       0.0000000000000000e+00
159 205       0.0000000000000000e+00
159 206       0.0000000000000000e+00
159 207       0.0000000000000000e+00
159 214       0.0000000000000000e+00
159 215       0.0000000000000000e+00
159 216       0.0000000000000000e+00
159 217       0.0000000000000000e+00
159 218       0.0000000000000000e+00
159 219       0.0000000000000000e+00
159 220       0.0000000000000000e+00
159 221       0.0000000000000000e+00
159 222       0.0000000000000000e+00
159 229       0.0000000000000000e+00
159 230       0.0000000000000000e+00
159 231       0.0000000000000000e+00
159 232       0.0000000000000000e+00
159 233       0.0000000000000000e+00
159 234       0.0000000000000000e+00
159 235       0.0000000000000000e+00
159 236       0.0000000000000000e+00
159 237       0.0000000000000000e+00
160 160       0.0000000000000000e+00
160 142       0.0000000000000000e+00
160 143       0.0000000000000000e+00
160 144       0.0000000000000000e+00
160 145       0.0000000000000000e+00
160 146       0.0000000000000000e+00
160 147       0.0000000000000000e+00
160 148       0.0000000000000000e+00
160 149       0.0000000000000000e+00
160 150       0.0000000000000000e+00
160 157       0.0000000000000000e+00
160 158       0.0000000000000000e+00
160 159       0.0000000000000000e+00
160 161       0.0000000000000000e+00
160 162       0.0000000000000000e+00
160 163       0.0000000000000000e+00
160 164       0.0000000000000000e+00
160 165       0.0000000000000000e+00
160 172       0.0000000000000000e+00
160 173       0.0000000000000000e+00
160 174       0.0000000000000000e+00
160 175       0.0000000000000000e+00
160 176       0.0000000000000000e+00
160 177       0.0000000000000000e+00
160 178       0.0000000000000000e+00
160 179       0.0000000000000000e+00
160 180       0.0000000000000000e+00
160 202       0.0000000000000000e+00
160 203       0.0000000000000000e+00
160 204       0.0000000000000000e+00
160 205       0.0000000000000000e+00
160 206       0.0000000000000000e+00
160 207       0.0000000000000000e+00
160 208       0.0000000000000000e+00
160 209       0.0000000000000000e+00
160 210       0.0000000000000000e+00
160 217       0.0000000000000000e+00
160 218       0.0000000000000000e+00
160 219       0.0000000000000000e+00
160 220       0.0000000000000000e+00
160 221       0.0000000000000000e+00
160 222       0.0000000000000000e+00
160 223       0.0000000000000000e+00
160 224       0.0000000000000000e+00
160 225       0.0000000000000000e+00
160 232       0.0000000000000000e+00
160 233       0.0000000000000000e+00
160 234       0.0000000000000000e+00
160 235       0.0000000000000000e+00
160 236       0.0000000000000000e+00
160 237       0.0000000000000000e+00
160 238       0.0000000000000000e+00
160 239       0.0000000000000000e+00
160 240       0.0000000000000000e+00
161 161       0.0000000000000000e+00
161 142       0.0000000000000000e+00
161 143       0.0000000000000000e+00
161 144       0.0000000000000000e+00
161 145       0.0000000000000000e+00
161 146       0.0000000000000000e+00
161 147       0.0000000000000000e+00
161 148       0.0000000000000000e+00
161 149       0.0000000000000000e+00
161 150       0.0000000000000000e+00
161 157       0.0000000000000000e+00
161 158       0.0000000000000000e+00
161 159       0.0000000000000000e+00
161 160       0.0000000000000000e+00
161 162       0.0000000000000000e+00
161 163       0.0000000000000000e+00
161 164       0.0000000000000000e+00
161 165       0.0000000000000000e+00
161 172       0.0000000000000000e+00
161 173       0.0000000000000000e+00
161 174       0.0000000000000000e+00
161 175       0.0000000000000000e+00
161 176       0.0000000000000000e+00
161 177       0.0000000000000000e+00
161 178       0.0000000000000000e+00
161 179       0.0000000000000000e+00
161 180       0.0000000000000000e+00
161 202       0.0000000000000000e+00
161 203       0.0000000000000000e+00
161 204       0.0000000000000000e+00
161 205       0.0000000000000000e+00
161 206       0.0000000000000000e+00
161 207       0.0000000000000000e+00
161 208       0.0000000000000000e+00
161 209       0.0000000000000000e+00
161 210       0.0000000000000000e+00
161 217       0.0000000000000000e+00
161 218       0.0000000000000000e+00
161 219       0.0000000000000000e+00
161 220       0.0000000000000000e+00
161 221       0.0000000000000000e+00
161 222       0.0000000000000000e+00
161 223       0.0000000000000000e+00
161 224       0.0000000000000000e+00
161 225       0.0000000000000000e+00
161 232       0.0000000000000000e+00
161 233       0.0000000000000000e+00
161 234       0.0000000000000000e+00
161 235       0.0000000000000000e+00
161 236       0.0000000000000000e+00
161 237       0.0000000000000000e+00
161 238       0.0000000000000000e+00
161 239       0.0000000000000000e+00
161 240       0.0000000000000000e+00
162 162       0.0000000000000000e+00
162 142       0.0000000000000000e+00
162 143       0.0000000000000000e+00
162 144       0.0000000000000000e+00
162 145       0.0000000000000000e+00
162 146       0.0000000000000000e+00
162 147       0.0000000000000000e+00
162 148       0.0000000000000000e+00
162 149       0.0000000000000000e+00
162 150       0.0000000000000000e+00
162 157       0.0000000000000000e+00
162 158       0.0000000000000000e+00
162 159       0.0000000000000000e+00
162 160       0.0000000000000000e+00
162 161       0.0000000000000000e+00
162 163       0.0000000000000000e+00
162 164       0.0000000000000000e+00
162 165       0.0000000000000000e+00
162 172       0.0000000000000000e+00
162 173       0.0000000000000000e+00
162 174       0.0000000000000000e+00
162 175       0.0000000000000000e+00
162 176       0.0000000000000000e+00
162 177       0.0000000000000000e+00
162 178       0.0000000000000000e+00
162 179       0.0000000000000000e+00
162 180       0.0000000000000000e+00
162 202       0.0000000000000000e+00
162 203       0.0000000000000000e+00
162 204       0.0000000000000000e+00
162 205       0.0000000000000000e+00
162 206       0.0000000000000000e+00
162 207       0.0000000000000000e+00
162 208       0.0000000000000000e+00
162 209       0.0000000000000000e+00
162 210       0.0000000000000000e+00
162 217       0.0000000000000000e+00
162 218       0.0000000000000000e+00
162 219       0.0000000000000000e+00
162 220       0.0000000000000000e+00
162 221       0.0000000000000000e+00
162 222       0.0000000000000000e+00
162 223       0.0000000000000000e+00
162 224       0.0000000000000000e+00
162 225       0.0000000000000000e+00
162 232       0.0000000000000000e+00
162 233       0.0000000000000000e+00
162 234       0.0000000000000000e+00
162 235       0.0000000000000000e+00
162 236       0.0000000000000000e+00
162 237       0.0000000000000000e+00
162 238       0.0000000000000000e+00
162 239       0.0000000000000000e+00
162 240       0.0000000000000000e+00
163 163       0.0000000000000000e+00
163 145       0.0000000000000000e+00
163 146       0.0000000000000000e+00
163 147       0.0000000000000000e+00
163 148       0.0000000000000000e+00
163 149       0.0000000000000000e+00
163 150       0.0000000000000000e+00
163 160       0.0000000000000000e+00
163 161       0.0000000000000000e+00
163 162       0.0000000000000000e+00
163 164       0.0000000000000000e+00
163 165       0.0000000000000000e+00
163 175       0.0000000000000000e+00
163 176       0.0000000000000000e+00
163 177       0.0000000000000000e+00
163 178       0.0000000000000000e+00
163 179       0.0000000000000000e+00
163 180       0.0000000000000000e+00
163 205       0.0000000000000000e+00
163 206       0.0000000000000000e+00
163 207       0.0000000000000000e+00
163 208       0.0000000000000000e+00
163 209       0.0000000000000000e+00
163 210       0.0000000000000000e+00
163 220       0.0000000000000000e+00
163 221       0.0000000000000000e+00
163 222       0.0000000000000000e+00
163 223       0.0000000000000000e+00
163 224       0.0000000000000000e+00
163 225       0.0000000000000000e+00
163 235       0.0000000000000000e+00
163 236       0.0000000000000000e+00
163 237       0.0000000000000000e+00
163 238       0.0000000000000000e+00
163 239       0.0000000000000000e+00
163 240       0.0000000000000000e+00
164 164       0.0000000000000000e+00
164 145       0.0000000000000000e+00
164 146       0.0000000000000000e+00
164 147       0.0000000000000000e+00
164 148       0.0000000000000000e+00
164 149       0.0000000000000000e+00
164 150       0.0000000000000000e+00
164 160       0.0000000000000000e+00
164 161       0.0000000000000000e+00
164 162       0.0000000000000000e+00
164 163       0.0000000000000000e+00
164 165       0.0000000000000000e+00
164 175       0.0000000000000000e+00
164 176       0.0000000000000000e+00
164 177       0.0000000000000000e+00
164 178       0.0000000000000000e+00
164 179       0.0000000000000000e+00
164 180       0.0000000000000000e+00
164 205       0.0000000000000000e+00
164 206       0.0000000000000000e+00
164 207       0.0000000000000000e+00
164 208       0.0000000000000000e+00
164 209       0.0000000000000000e+00
164 210       0.0000000000000000e+00
164 220       0.0000000000000000e+00
164 221       0.0000000000000000e+00
164 222       0.0000000000000000e+00
164 223       0.0000000000000000e+00
164 224       0.0000000000000000e+00
164 225       0.0000000000000000e+00
164 235       0.0000000000000000e+00
164 236       0.0000000000000000e+00
164 237       0.0000000000000000e+00
164 238       0.0000000000000000e+00
164 239       0.0000000000000000e+00
164 240       0.0000000000000000e+00
165 165       0.0000000000000000e+00
165 145       0.0000000000000000e+00
165 146       0.0000000000000000e+00
165 147       0.0000000000000000e+00
165 148       0.0000000000000000e+00
165 149       0.0000000000000000e+00
165 150       0.0000000000000000e+00
165 160       0.0000000000000000e+00
165 161       0.0000000000000000e+00
165 162       0.0000000000000000e+00
165 163       0.0000000000000000e+00
165 164       0.0000000000000000e+00
165 175       0.0000000000000000e+00
165 176       0.0000000000000000e+00
165 177       0.0000000000000000e+00
165 178       0.0000000000000000e+00
165 179       0.0000000000000000e+00
165 180       0.0000000000000000e+00
165 205       0.0000000000000000e+00
165 206       0.0000000000000000e+00
165 207       0.0000000000000000e+00
165 208       0.0000000000000000e+00
165 209       0.0000000000000000e+00
165 210       0.0000000000000000e+00
165 220       0.0000000000000000e+00
165 221       0.0000000000000000e+00
165 222       0.0000000000000000e+00
165 223       0.0000000000000000e+00
165 224       0.0000000000000000e+00
165 225       0.0000000000000000e+00
165 235       0.0000000000000000e+00
165 236       0.0000000000000000e+00
165 237       0.0000000000000000e+00
165 238       0.0000000000000000e+00
165 239       0.0000000000000000e+00
165 240       0.0000000000000000e+00
166 166       0.0000000000000000e+00
166 151       0.0000000000000000e+00
166 152       0.0000000000000000e+00
166 153       0.0000000000000000e+00
166 154       0.0000000000000000e+00
166 155       0.0000000000000000e+00
166 156       0.0000000000000000e+00
166 167       0.0000000000000000e+00
166 168       0.0000000000000000e+00
166 169       0.0000000000000000e+00
166 170       0.0000000000000000e+00
166 171       0.0000000000000000e+00
166 181       0.0000000000000000e+00
166 182       0.0000000000000000e+00
166 183       0.0000000000000000e+00
166 184       0.0000000000000000e+00
166 185       0.0000000000000000e+00
166 186       0.0000000000000000e+00
166 211       0.0000000000000000e+00
166 212       0.0000000000000000e+00
166 213       0.0000000000000000e+00
166 214       0.0000000000000000e+00
166 215       0.0000000000000000e+00
166 216       0.0000000000000000e+00
166 226       0.0000000000000000e+00
166 227       0.0000000000000000e+00
166 228       0.0000000000000000e+00
166 229       0.0000000000000000e+00
166 230       0.0000000000000000e+00
166 231       0.0000000000000000e+00
166 241       0.0000000000000000e+00
166 242       0.0000000000000000e+00
166 243       0.0000000000000000e+00
166 244       0.0000000000000000e+00
166 245       0.0000000000000000e+00
166 246       0.0000000000000000e+00
166 379       0.0000000000000000e+00
166 380       0.0000000000000000e+00
166 381       0.0000000000000000e+00
166 382       0.0000000000000000e+00
166 383       0.0000000000000000e+00
166 384       0.0000000000000000e+00
166 406       0.0000000000000000e+00
166 407       0.0000000000000000e+00
166 408       0.0000000000000000e+00
166 409       0.0000000000000000e+00
166 410       0.0000000000000000e+00
166 411       0.0000000000000000e+00
166 433       0.0000000000000000e+00
166 434       0.0000000000000000e+00
166 435       0.0000000000000000e+00
166 436       0.0000000000000000e+00
166 437       0.0000000000000000e+00
166 438       0.0000000000000000e+00
167 167       0.0000000000000000e+00
167 151       0.0000000000000000e+00
167 152       0.0000000000000000e+00
167 153       0.0000000000000000e+00
167 154       0.0000000000000000e+00
167 155       0.0000000000000000e+00
167 156       0.0000000000000000e+00
167 166       0.0000000000000000e+00
167 168       0.0000000000000000e+00
167 169       0.0000000000000000e+00
167 170       0.0000000000000000e+00
167 171       0.0000000000000000e+00
167 181       0.0000000000000000e+00
167 182       0.0000000000000000e+00
167 183       0.0000000000000000e+00
167 184       0.0000000000000000e+00
167 185       0.0000000000000000e+00
167 186       0.0000000000000000e+00
167 211       0.0000000000000000e+00
167 212       0.0000000000000000e+00
167 213       0.0000000000000000e+00
167 214       0.0000000000000000e+00
167 215       0.0000000000000000e+00
167 216       0.0000000000000000e+00
167 226       0.0000000000000000e+00
167 227       0.0000000000000000e+00
167 228       0.0000000000000000e+00
167 229       0.0000000000000000e+00
167 230       0.0000000000000000e+00
167 231       0.0000000000000000e+00
167 241       0.0000000000000000e+00
167 242       0.0000000000000000e+00
167 243       0.0000000000000000e+00
167 244       0.0000000000000000e+00
167 245       0.0000000000000000e+00
167 246       0.0000000000000000e+00
167 379       0.0000000000000000e+00
167 380       0.0000000000000000e+00
167 381       0.0000000000000000e+00
167 382       0.0000000000000000e+00
167 383       0.0000000000000000e+00
167 384       0.0000000000000000e+00
167 406       0.0000000000000000e+00
167 407       0.0000000000000000e+00
167 408       0.0000000000000000e+00
167 409       0.0000000000000000e+00
167 410       0.0000000000000000e+00
167 411       0.0000000000000000e+00
167 433       0.0000000000000000e+00
167 434       0.0000000000000000e+00
167 435       0.0000000000000000e+00
167 436       0.0000000000000000e+00
167 437       0.0000000000000000e+00
167 438       0.0000000000000000e+00
168 168       0.0000000000000000e+00
168 151       0.0000000000000000e+00
168 152       0.0000000000000000e+00
168 153       0.0000000000000000e+00
168 154       0.0000000000000000e+00
168 155       0.0000000000000000e+00
168 156       0.0000000000000000e+00
168 166       0.0000000000000000e+00
168 167       0.0000000000000000e+00
168 169       0.0000000000000000e+00
168 170       0.0000000000000000e+00
168 171       0.0000000000000000e+00
168 181       0.0000000000000000e+00
168 182       0.0000000000000000e+00
168 183       0.0000000000000000e+00
168 184       0.0000000000000000e+00
168 185       0.0000000000000000e+00
168 186       0.0000000000000000e+00
168 211       0.0000000000000000e+00
168 212       0.0000000000000000e+00
168 213       0.0000000000000000e+00
168 214       0.0000000000000000e+00
168 215       0.0000000000000000e+00
168 216       0.0000000000000000e+00
168 226       0.0000000000000000e+00
168 227       0.0000000000000000e+00
168 228       0.0000000000000000e+00
168 229       0.0000000000000000e+00
168 230       0.0000000000000000e+00
168 231       0.0000000000000000e+00
168 241       0.0000000000000000e+00
168 242       0.0000000000000000e+00
168 243       0.0000000000000000e+00
168 244       0.0000000000000000e+00
168 245       0.0000000000000000e+00
168 246       0.0000000000000000e+00
168 379       0.0000000000000000e+00
168 380       0.0000000000000000e+00
168 381       0.0000000000000000e+00
168 382       0.0000000000000000e+00
168 383       0.0000000000000000e+00
168 384       0.0000000000000000e+00
168 406       0.0000000000000000e+00
168 407       0.0000000000000000e+00
168 408       0.0000000000000000e+00
168 409       0.0000000000000000e+00
168 410       0.0000000000000000e+00
168 411       0.0000000000000000e+00
168 433       0.0000000000000000e+00
168 434       0.0000000000000000e+00
168 435       0.0000000000000000e+00
168 436       0.0000000000000000e+00
168 437       0.0000000000000000e+00
168 438       0.0000000000000000e+00
169 169       0.0000000000000000e+00
169 151       0.0000000000000000e+00
169 152       0.0000000000000000e+00
169 153       0.0000000000000000e+00
169 154       0.0000000000000000e+00
169 155       0.0000000000000000e+00
169 156       0.0000000000000000e+00
169 157       0.0000000000000000e+00
169 158       0.0000000000000000e+00
169 159       0.0000000000000000e+00
169 166       0.0000000000000000e+00
169 167       0.0000000000000000e+00
169 168       0.0000000000000000e+00
169 170       0.0000000000000000e+00
169 171       0.0000000000000000e+00
169 172       0.0000000000000000e+00
169 173       0.0000000000000000e+00
169 174       0.0000000000000000e+00
169 181       0.0000000000000000e+00
169 182       0.0000000000000000e+00
169 183       0.0000000000000000e+00
169 184       0.0000000000000000e+00
169 185       0.0000000000000000e+00
169 186       0.0000000000000000e+00
169 187       0.0000000000000000e+00
169 188       0.0000000000000000e+00
169 189       0.0000000000000000e+00
169 211       0.0000000000000000e+00
169 212       0.0000000000000000e+00
169 213       0.0000000000000000e+00
169 214       0.0000000000000000e+00
169 215       0.0000000000000000e+00
169 216       0.0000000000000000e+00
169 217       0.0000000000000000e+00
169 218       0.0000000000000000e+00
169 219       0.0000000000000000e+00
169 226       0.0000000000000000e+00
169 227       0.0000000000000000e+00
169 228       0.0000000000000000e+00
169 229       0.0000000000000000e+00
169 230       0.0000000000000000e+00
169 231       0.0000000000000000e+00
169 232       0.0000000000000000e+00
169 233       0.0000000000000000e+00
169 234       0.0000000000000000e+00
169 241       0.0000000000000000e+00
169 242       0.0000000000000000e+00
169 243       0.0000000000000000e+00
169 244       0.0000000000000000e+00
169 245       0.0000000000000000e+00
169 246       0.0000000000000000e+00
169 247       0.0000000000000000e+00
169 248       0.0000000000000000e+00
169 249       0.0000000000000000e+00
169 406       0.0000000000000000e+00
169 407       0.0000000000000000e+00
169 408       0.0000000000000000e+00
169 409       0.0000000000000000e+00
169 410       0.0000000000000000e+00
169 411       0.0000000000000000e+00
170 170       0.0000000000000000e+00
170 151       0.0000000000000000e+00
170 152       0.0000000000000000e+00
170 153       0.0000000000000000e+00
170 154       0.0000000000000000e+00
170 155       0.0000000000000000e+00
170 156       0.0000000000000000e+00
170 157       0.0000000000000000e+00
170 158       0.0000000000000000e+00
170 159       0.0000000000000000e+00
170 166       0.0000000000000000e+00
170 167       0.0000000000000000e+00
170 168       0.0000000000000000e+00
170 169       0.0000000000000000e+00
170 171       0.0000000000000000e+00
170 172       0.0000000000000000e+00
170 173       0.0000000000000000e+00
170 174       0.0000000000000000e+00
170 181       0.0000000000000000e+00
170 182       0.0000000000000000e+00
170 183       0.0000000000000000e+00
170 184       0.0000000000000000e+00
170 185       0.0000000000000000e+00
170 186       0.0000000000000000e+00
170 187       0.0000000000000000e+00
170 188       0.0000000000000000e+00
170 189       0.0000000000000000e+00
170 211       0.0000000000000000e+00
170 212       0.0000000000000000e+00
170 213       0.0000000000000000e+00
170 214       0.0000000000000000e+00
170 215       0.0000000000000000e+00
170 216       0.0000000000000000e+00
170 217       0.0000000000000000e+00
170 218       0.0000000000000000e+00
170 219       0.0000000000000000e+00
170 226       0.0000000000000000e+00
170 227       0.0000000000000000e+00
170 228       0.0000000000000000e+00
170 229       0.0000000000000000e+00
170 230       0.0000000000000000e+00
170 231       0.0000000000000000e+00
170 232       0.0000000000000000e+00
170 233       0.0000000000000000e+00
170 234       0.0000000000000000e+00
170 241       0.0000000000000000e+00
170 242       0.0000000000000000e+00
170 243       0.0000000000000000e+00
170 244       0.0000000000000000e+00
170 245       0.0000000000000000e+00
170 246       0.0000000000000000e+00
170 247       0.0000000000000000e+00
170 248       0.0000000000000000e+00
170 249       0.0000000000000000e+00
170 406       0.0000000000000000e+00
170 407       0.0000000000000000e+00
170 408       0.0000000000000000e+00
170 409       0.0000000000000000e+00
170 410       0.0000000000000000e+00
170 411       0.0000000000000000e+00
171 171       0.0000000000000000e+00
171 151       0.0000000000000000e+00
171 152       0.0000000000000000e+00
171 153       0.0000000000000000e+00
171 154       0.0000000000000000e+00
171 155       0.0000000000000000e+00
171 156       0.0000000000000000e+00
171 157       0.0000000000000000e+00
171 158       0.0000000000000000e+00
171 159       0.0000000000000000e+00
171 166       0.0000000000000000e+00
171 167       0.0000000000000000e+00
171 168       0.0000000000000000e+00
171 169       0.0000000000000000e+00
171 170       0.0000000000000000e+00
171 172       0.0000000000000000e+00
171 173       0.0000000000000000e+00
171 174       0.0000000000000000e+00
171 181       0.0000000000000000e+00
171 182       0.0000000000000000e+00
171 183       0.0000000000000000e+00
171 184       0.0000000000000000e+00
171 185       0.0000000000000000e+00
171 186       0.0000000000000000e+00
171 187       0.0000000000000000e+00
171 188       0.0000000000000000e+00
171 189       0.0000000000000000e+00
171 211       0.0000000000000000e+00
171 212       0.0000000000000000e+00
171 213       0.0000000000000000e+00
171 214       0.0000000000000000e+00
171 215       0.0000000000000000e+00
171 216       0.0000000000000000e+00
171 217       0.0000000000000000e+00
171 218       0.0000000000000000e+00
171 219       0.0000000000000000e+00
171 226       0.0000000000000000e+00
171 227       0.0000000000000000e+00
171 228       0.0000000000000000e+00
171 229       0.0000000000000000e+00
171 230       0.0000000000000000e+00
171 231       0.0000000000000000e+00
171 232       0.0000000000000000e+00
171 233       0.0000000000000000e+00
171 234       0.0000000000000000e+00
171 241       0.0000000000000000e+00
171 242       0.0000000000000000e+00
171 243       0.0000000000000000e+00
171 244       0.0000000000000000e+00
171 245       0.0000000000000000e+00
171 246       0.0000000000000000e+00
171 247       0.0000000000000000e+00
171 248       0.0000000000000000e+00
171 249       0.0000000000000000e+00
171 406       0.0000000000000000e+00
171 407       0.0000000000000000e+00
171 408       0.0000000000000000e+00
171 409       0.0000000000000000e+00
171 410       0.0000000000000000e+00
171 411       0.0000000000000000e+00
172 172       0.0000000000000000e+00
172 154       0.0000000000000000e+00
172 155       0.0000000000000000e+00
172 156       0.0000000000000000e+00
172 157       0.0000000000000000e+00
172 158       0.0000000000000000e+00
172 159       0.0000000000000000e+00
172 160       0.0000000000000000e+00
172 161       0.0000000000000000e+00
172 162       0.0000000000000000e+00
172 169       0.0000000000000000e+00
172 170       0.0000000000000000e+00
172 171       0.0000000000000000e+00
172 173       0.0000000000000000e+00
172 174       0.0000000000000000e+00
172 175       0.0000000000000000e+00
172 176       0.0000000000000000e+00
172 177       0.0000000000000000e+00
172 184       0.0000000000000000e+00
172 185       0.0000000000000000e+00
172 186       0.0000000000000000e+00
172 187       0.0000000000000000e+00
172 188       0.0000000000000000e+00
172 189       0.0000000000000000e+00
172 190       0.0000000000000000e+00
172 191       0.0000000000000000e+00
172 192       0.0000000000000000e+00
172 214       0.0000000000000000e+00
172 215       0.0000000000000000e+00
172 216       0.0000000000000000e+00
172 217       0.0000000000000000e+00
172 218       0.0000000000000000e+00
172 219       0.0000000000000000e+00
172 220       0.0000000000000000e+00
172 221       0.0000000000000000e+00
172 222       0.0000000000000000e+00
172 229       0.0000000000000000e+00
172 230       0.0000000000000000e+00
172 231       0.0000000000000000e+00
172 232       0.0000000000000000e+00
172 233       0.0000000000000000e+00
172 234       0.0000000000000000e+00
172 235       0.0000000000000000e+00
172 236       0.0000000000000000e+00
172 237       0.0000000000000000e+00
172 244       0.0000000000000000e+00
172 245       0.0000000000000000e+00
172 246       0.0000000000000000e+00
172 247       0.0000000000000000e+00
172 248       0.0000000000000000e+00
172 249       0.0000000000000000e+00
172 250       0.0000000000000000e+00
172 251       0.0000000000000000e+00
172 252       0.0000000000000000e+00
173 173       0.0000000000000000e+00
173 154       0.0000000000000000e+00
173 155       0.0000000000000000e+00
173 156       0.0000000000000000e+00
173 157       0.0000000000000000e+00
173 158       0.0000000000000000e+00
173 159       0.0000000000000000e+00
173 160       0.0000000000000000e+00
173 161       0.0000000000000000e+00
173 162       0.0000000000000000e+00
173 169       0.0000000000000000e+00
173 170       0.0000000000000000e+00
173 171       0.0000000000000000e+00
173 172       0.0000000000000000e+00
173 174       0.0000000000000000e+00
173 175       0.0000000000000000e+00
173 176       0.0000000000000000e+00
173 177       0.0000000000000000e+00
173 184       0.0000000000000000e+00
173 185       0.0000000000000000e+00
173 186       0.0000000000000000e+00
173 187       0.0000000000000000e+00
173 188       0.0000000000000000e+00
173 189       0.0000000000000000e+00
173 190       0.0000000000000000e+00
173 191       0.0000000000000000e+00
173 192       0.0000000000000000e+00
173 214       0.0000000000000000e+00
173 215       0.0000000000000000e+00
173 216       0.0000000000000000e+00
173 217       0.0000000000000000e+00
173 218       0.0000000000000000e+00
173 219       0.0000000000000000e+00
173 220       0.0000000000000000e+00
173 221       0.0000000000000000e+00
173 222       0.0000000000000000e+00
173 229       0.0000000000000000e+00
173 230       0.0000000000000000e+00
173 231       0.0000000000000000e+00
173 232       0.0000000000000000e+00
173 233       0.0000000000000000e+00
173 234       0.0000000000000000e+00
173 235       0.0000000000000000e+00
173 236       0.0000000000000000e+00
173 237       0.0000000000000000e+00
173 244       0.0000000000000000e+00
173 245       0.0000000000000000e+00
173 246       0.0000000000000000e+00
173 247       0.0000000000000000e+00
173 248       0.0000000000000000e+00
173 249       0.0000000000000000e+00
173 250       0.0000000000000000e+00
173 251       0.0000000000000000e+00
173 252       0.0000000000000000e+00
174 174       0.0000000000000000e+00
174 154       0.0000000000000000e+00
174 155       0.0000000000000000e+00
174 156       0.0000000000000000e+00
174 157       0.0000000000000000e+00
174 158       0.0000000000000000e+00
174 159       0.0000000000000000e+00
174 160       0.0000000000000000e+00
174 161       0.0000000000000000e+00
174 162       0.0000000000000000e+00
174 169       0.0000000000000000e+00
174 170       0.0000000000000000e+00
174 171       0.0000000000000000e+00
174 172       0.0000000000000000e+00
174 173       0.0000000000000000e+00
174 175       0.0000000000000000e+00
174 176       0.0000000000000000e+00
174 177       0.0000000000000000e+00
174 184       0.0000000000000000e+00
174 185       0.0000000000000000e+00
174 186       0.0000000000000000e+00
174 187       0.0000000000000000e+00
174 188       0.0000000000000000e+00
174 189       0.0000000000000000e+00
174 190       0.0000000000000000e+00
174 191       0.0000000000000000e+00
174 192       0.0000000000000000e+00
174 214       0.0000000000000000e+00
174 215       0.0000000000000000e+00
174 216       0.0000000000000000e+00
174 217       0.0000000000000000e+00
174 218       0.0000000000000000e+00
174 219       0.0000000000000000e+00
174 220       0.0000000000000000e+00
174 221       0.0000000000000000e+00
174 222       0.0000000000000000e+00
174 229       0.0000000000000000e+00
174 230       0.0000000000000000e+00
174 231       0.0000000000000000e+00
174 232       0.0000000000000000e+00
174 233       0.0000000000000000e+00
174 234       0.0000000000000000e+00
174 235       0.0000000000000000e+00
174 236       0.0000000000000000e+00
174 237       0.0000000000000000e+00
174 244       0.0000000000000000e+00
174 245       0.0000000000000000e+00
174 246       0.0000000000000000e+00
174 247       0.0000000000000000e+00
174 248       0.0000000000000000e+00
174 249       0.0000000000000000e+00
174 250       0.0000000000000000e+00
174 251       0.0000000000000000e+00
174 252       0.0000000000000000e+00
175 175       0.0000000000000000e+00
175 157       0.0000000000000000e+00
175 158       0.0000000000000000e+00
175 159       0.0000000000000000e+00
175 160       0.0000000000000000e+00
175 161       0.0000000000000000e+00
175 162       0.0000000000000000e+00
175 163       0.0000000000000000e+00
175 164       0.0000000000000000e+00
175 165       0.0000000000000000e+00
175 172       0.0000000000000000e+00
175 173       0.0000000000000000e+00
175 174       0.0000000000000000e+00
175 176       0.0000000000000000e+00
175 177       0.0000000000000000e+00
175 178       0.0000000000000000e+00
175 179       0.0000000000000000e+00
175 180       0.0000000000000000e+00
175 187       0.0000000000000000e+00
175 188       0.0000000000000000e+00
175 189       0.0000000000000000e+00
175 190       0.0000000000000000e+00
175 191       0.0000000000000000e+00
175 192       0.0000000000000000e+00
175 193       0.0000000000000000e+00
175 194       0.0000000000000000e+00
175 195       0.0000000000000000e+00
175 217       0.0000000000000000e+00
175 218       0.0000000000000000e+00
175 219       0.0000000000000000e+00
175 220       0.0000000000000000e+00
175 221       0.0000000000000000e+00
175 222       0.0000000000000000e+00
175 223       0.0000000000000000e+00
175 224       0.0000000000000000e+00
175 225       0.0000000000000000e+00
175 232       0.0000000000000000e+00
175 233       0.0000000000000000e+00
175 234       0.0000000000000000e+00
175 235       0.0000000000000000e+00
175 236       0.0000000000000000e+00
175 237       0.0000000000000000e+00
175 238       0.0000000000000000e+00
175 239       0.0000000000000000e+00
175 240       0.0000000000000000e+00
175 247       0.0000000000000000e+00
175 248       0.0000000000000000e+00
175 249       0.0000000000000000e+00
175 250       0.0000000000000000e+00
175 251       0.0000000000000000e+00
175 252       0.0000000000000000e+00
175 253       0.0000000000000000e+00
175 254       0.0000000000000000e+00
175 255       0.0000000000000000e+00
176 176       0.0000000000000000e+00
176 157       0.0000000000000000e+00
176 158       0.0000000000000000e+00
176 159       0.0000000000000000e+00
176 160       0.0000000000000000e+00
176 161       0.0000000000000000e+00
176 162       0.0000000000000000e+00
176 163       0.0000000000000000e+00
176 164       0.0000000000000000e+00
176 165       0.0000000000000000e+00
176 172       0.0000000000000000e+00
176 173       0.0000000000000000e+00
176 174       0.0000000000000000e+00
176 175       0.0000000000000000e+00
176 177       0.0000000000000000e+00
176 178       0.0000000000000000e+00
176 179       0.0000000000000000e+00
176 180       0.0000000000000000e+00
176 187       0.0000000000000000e+00
176 188       0.0000000000000000e+00
176 189       0.0000000000000000e+00
176 190       0.0000000000000000e+00
176 191       0.0000000000000000e+00
176 192       0.0000000000000000e+00
176 193       0.0000000000000000e+00
176 194       0.0000000000000000e+00
176 195       0.0000000000000000e+00
176 217       0.0000000000000000e+00
176 218       0.0000000000000000e+00
176 219       0.0000000000000000e+00
176 220       0.0000000000000000e+00
176 221       0.0000000000000000e+00
176 222       0.0000000000000000e+00
176 223       0.0000000000000000e+00
176 224       0.0000000000000000e+00
176 225       0.0000000000000000e+00
176 232       0.0000000000000000e+00
176 233       0.0000000000000000e+00
176 234       0.0000000000000000e+00
176 235       0.0000000000000000e+00
176 236       0.0000000000000000e+00
176 237       0.0000000000000000e+00
176 238       0.0000000000000000e+00
176 239       0.0000000000000000e+00
176 240       0.0000000000000000e+00
176 247       0.0000000000000000e+00
176 248       0.0000000000000000e+00
176 249       0.0000000000000000e+00
176 250       0.0000000000000000e+00
176 251       0.0000000000000000e+00
176 252       0.0000000000000000e+00
176 253       0.0000000000000000e+00
176 254       0.0000000000000000e+00
176 255       0.0000000000000000e+00
177 177       0.0000000000000000e+00
177 157       0.0000000000000000e+00
177 158       0.0000000000000000e+00
177 159       0.0000000000000000e+00
177 160       0.0000000000000000e+00
177 161       0.0000000000000000e+00
177 162       0.0000000000000000e+00
177 163       0.0000000000000000e+00
177 164       0.0000000000000000e+00
177 165       0.0000000000000000e+00
177 172       0.0000000000000000e+00
177 173       0.0000000000000000e+00
177 174       0.0000000000000000e+00
177 175       0.0000000000000000e+00
177 176       0.0000000000000000e+00
177 178       0.0000000000000000e+00
177 179       0.0000000000000000e+00
177 180       0.0000000000000000e+00
177 187       0.0000000000000000e+00
177 188       0.0000000000000000e+00
177 189       0.0000000000000000e+00
177 190       0.0000000000000000e+00
177 191       0.0000000000000000e+00
177 192       0.0000000000000000e+00
177 193       0.0000000000000000e+00
177 194       0.0000000000000000e+00
177 195       0.0000000000000000e+00
177 217       0.0000000000000000e+00
177 218       0.0000000000000000e+00
177 219       0.0000000000000000e+00
177 220       0.0000000000000000e+00
177 221       0.0000000000000000e+00
177 222       0.0000000000000000e+00
177 223       0.0000000000000000e+00
177 224       0.0000000000000000e+00
177 225       0.0000000000000000e+00
177 232       0.0000000000000000e+00
177 233       0.0000000000000000e+00
177 234       0.0000000000000000e+00
177 235       0.0000000000000000e+00
177 236       0.0000000000000000e+00
177 237       0.0000000000000000e+00
177 238       0.0000000000000000e+00
177 239       0.0000000000000000e+00
177 240       0.0000000000000000e+00
177 247       0.0000000000000000e+00
177 248       0.0000000000000000e+00
177 249       0.0000000000000000e+00
177 250       0.0000000000000000e+00
177 251       0.0000000000000000e+00
177 252       0.0000000000000000e+00
177 253       0.0000000000000000e+00
177 254       0.0000000000000000e+00
177 255       0.0000000000000000e+00
178 178       0.0000000000000000e+00
178 160       0.0000000000000000e+00
178 161       0.0000000000000000e+00
178 162       0.0000000000000000e+00
178 163       0.0000000000000000e+00
178 164       0.0000000000000000e+00
178 165       0.0000000000000000e+00
178 175       0.0000000000000000e+00
178 176       0.0000000000000000e+00
178 177       0.0000000000000000e+00
178 179       0.0000000000000000e+00
178 180       0.0000000000000000e+00
178 190       0.0000000000000000e+00
178 191       0.0000000000000000e+00
178 192       0.0000000000000000e+00
178 193       0.0000000000000000e+00
178 194       0.0000000000000000e+00
178 195       0.0000000000000000e+00
178 220       0.0000000000000000e+00
178 221       0.0000000000000000e+00
178 222       0.0000000000000000e+00
178 223       0.0000000000000000e+00
178 224       0.0000000000000000e+00
178 225       0.0000000000000000e+00
178 235       0.0000000000000000e+00
178 236       0.0000000000000000e+00
178 237       0.0000000000000000e+00
178 238       0.0000000000000000e+00
178 239       0.0000000000000000e+00
178 240       0.0000000000000000e+00
178 250       0.0000000000000000e+00
178 251       0.0000000000000000e+00
178 252       0.0000000000000000e+00
178 253       0.0000000000000000e+00
178 254       0.0000000000000000e+00
178 255       0.0000000000000000e+00
179 179       0.0000000000000000e+00
179 160       0.0000000000000000e+00
179 161       0.0000000000000000e+00
179 162       0.0000000000000000e+00
179 163       0.0000000000000000e+00
179 164       0.0000000000000000e+00
179 165       0.0000000000000000e+00
179 175       0.0000000000000000e+00
179 176       0.0000000000000000e+00
179 177       0.0000000000000000e+00
179 178       0.0000000000000000e+00
179 180       0.0000000000000000e+00
179 190       0.0000000000000000e+00
179 191       0.0000000000000000e+00
179 192       0.0000000000000000e+00
179 193       0.0000000000000000e+00
179 194       0.0000000000000000e+00
179 195       0.0000000000000000e+00
179 220       0.0000000000000000e+00
179 221       0.0000000000000000e+00
179 222       0.0000000000000000e+00
179 223       0.0000000000000000e+00
179 224       0.0000000000000000e+00
179 225       0.0000000000000000e+00
179 235       0.0000000000000000e+00
179 236       0.0000000000000000e+00
179 237       0.0000000000000000e+00
179 238       0.0000000000000000e+00
179 239       0.0000000000000000e+00
179 240       0.0000000000000000e+00
179 250       0.0000000000000000e+00
179 251       0.0000000000000000e+00
179 252       0.0000000000000000e+00
179 253       0.0000000000000000e+00
179 254       0.0000000000000000e+00
179 255       0.0000000000000000e+00
180 180       0.0000000000000000e+00
180 160       0.0000000000000000e+00
180 161       0.0000000000000000e+00
180 162       0.0000000000000000e+00
180 163       0.0000000000000000e+00
180 164       0.0000000000000000e+00
180 165       0.0000000000000000e+00
180 175       0.0000000000000000e+00
180 176       0.0000000000000000e+00
180 177       0.0000000000000000e+00
180 178       0.0000000000000000e+00
180 179       0.0000000000000000e+00
180 190       0.0000000000000000e+00
180 191       0.0000000000000000e+00
180 192       0.0000000000000000e+00
180 193       0.0000000000000000e+00
180 194       0.0000000000000000e+00
180 195       0.0000000000000000e+00
180 220       0.0000000000000000e+00
180 221       0.0000000000000000e+00
180 222       0.0000000000000000e+00
180 223       0.0000000000000000e+00
180 224       0.0000000000000000e+00
180 225       0.0000000000000000e+00
180 235       0.0000000000000000e+00
180 236       0.0000000000000000e+00
180 237       0.0000000000000000e+00
180 238       0.0000000000000000e+00
180 239       0.0000000000000000e+00
180 240       0.0000000000000000e+00
180 250       0.0000000000000000e+00
180 251       0.0000000000000000e+00
180 252       0.0000000000000000e+00
180 253       0.0000000000000000e+00
180 254       0.0000000000000000e+00
180 255       0.0000000000000000e+00
181 181       0.0000000000000000e+00
181 166       0.0000000000000000e+00
181 167       0.0000000000000000e+00
181 168       0.0000000000000000e+00
181 169       0.0000000000000000e+00
181 170       0.0000000000000000e+00
181 171       0.0000000000000000e+00
181 182       0.0000000000000000e+00
181 183       0.0000000000000000e+00
181 184       0.0000000000000000e+00
181 185       0.0000000000000000e+00
181 186       0.0000000000000000e+00
181 226       0.0000000000000000e+00
181 227       0.0000000000000000e+00
181 228       0.0000000000000000e+00
181 229       0.0000000000000000e+00
181 230       0.0000000000000000e+00
181 231       0.0000000000000000e+00
181 241       0.0000000000000000e+00
181 242       0.0000000000000000e+00
181 243       0.0000000000000000e+00
181 244       0.0000000000000000e+00
181 245       0.0000000000000000e+00
181 246       0.0000000000000000e+00
181 382       0.0000000000000000e+00
181 383       0.0000000000000000e+00
181 384       0.0000000000000000e+00
181 409       0.0000000000000000e+00
181 410       0.0000000000000000e+00
181 411       0.0000000000000000e+00
181 436       0.0000000000000000e+00
181 437       0.0000000000000000e+00
181 438       0.0000000000000000e+00
182 182       0.0000000000000000e+00
182 166       0.0000000000000000e+00
182 167       0.0000000000000000e+00
182 168       0.0000000000000000e+00
182 169       0.0000000000000000e+00
182 170       0.0000000000000000e+00
182 171       0.0000000000000000e+00
182 181       0.0000000000000000e+00
182 183       0.0000000000000000e+00
182 184       0.0000000000000000e+00
182 185       0.0000000000000000e+00
182 186       0.0000000000000000e+00
182 226       0.0000000000000000e+00
182 227       0.0000000000000000e+00
182 228       0.0000000000000000e+00
182 229       0.0000000000000000e+00
182 230       0.0000000000000000e+00
182 231       0.0000000000000000e+00
182 241       0.0000000000000000e+00
182 242       0.0000000000000000e+00
182 243       0.0000000000000000e+00
182 244       0.0000000000000000e+00
182 245       0.0000000000000000e+00
182 246       0.0000000000000000e+00
182 382       0.0000000000000000e+00
182 383       0.0000000000000000e+00
182 384       0.0000000000000000e+00
182 409       0.0000000000000000e+00
182 410       0.0000000000000000e+00
182 411       0.0000000000000000e+00
182 436       0.0000000000000000e+00
182 437       0.0000000000000000e+00
182 438       0.0000000000000000e+00
183 183       0.0000000000000000e+00
183 166       0.0000000000000000e+00
183 167       0.0000000000000000e+00
183 168       0.0000000000000000e+00
183 169       0.0000000000000000e+00
183 170       0.0000000000000000e+00
183 171       0.0000000000000000e+00
183 181       0.0000000000000000e+00
183 182       0.0000000000000000e+00
183 184       0.0000000000000000e+00
183 185       0.0000000000000000e+00
183 186       0.0000000000000000e+00
183 226       0.0000000000000000e+00
183 227       0.0000000000000000e+00
183 228       0.0000000000000000e+00
183 229       0.0000000000000000e+00
183 230       0.0000000000000000e+00
183 231       0.0000000000000000e+00
183 241       0.0000000000000000e+00
183 242       0.0000000000000000e+00
183 243       0.0000000000000000e+00
183 244       0.0000000000000000e+00
183 245       0.0000000000000000e+00
183 246       0.0000000000000000e+00
183 382       0.0000000000000000e+00
183 383       0.0000000000000000e+00
183 384       0.0000000000000000e+00
183 409       0.0000000000000000e+00
183 410       0.0000000000000000e+00
183 411       0.0000000000000000e+00
183 436       0.0000000000000000e+00
183 437       0.0000000000000000e+00
183 438       0.0000000000000000e+00
184 184       0.0000000000000000e+00
184 166       0.0000000000000000e+00
184 167       0.0000000000000000e+00
184 168       0.0000000000000000e+00
184 169       0.0000000000000000e+00
184 170       0.0000000000000000e+00
184 171       0.0000000000000000e+00
184 172       0.0000000000000000e+00
184 173       0.0000000000000000e+00
184 174       0.0000000000000000e+00
184 181       0.0000000000000000e+00
184 182       0.0000000000000000e+00
184 183       0.0000000000000000e+00
184 185       0.0000000000000000e+00
184 186       0.0000000000000000e+00
184 187       0.0000000000000000e+00
184 188       0.0000000000000000e+00
184 189       0.0000000000000000e+00
184 226       0.0000000000000000e+00
184 227       0.0000000000000000e+00
184 228       0.0000000000000000e+00
184 229       0.0000000000000000e+00
184 230       0.0000000000000000e+00
184 231       0.0000000000000000e+00
184 232       0.0000000000000000e+00
184 233       0.0000000000000000e+00
184 234       0.0000000000000000e+00
184 241       0.0000000000000000e+00
184 242       0.0000000000000000e+00
184 243       0.0000000000000000e+00
184 244       0.0000000000000000e+00
184 245       0.0000000000000000e+00
184 246       0.0000000000000000e+00
184 247       0.0000000000000000e+00
184 248       0.0000000000000000e+00
184 249       0.0000000000000000e+00
184 409       0.0000000000000000e+00
184 410       0.0000000000000000e+00
184 411       0.0000000000000000e+00
185 185       0.0000000000000000e+00
185 166       0.0000000000000000e+00
185 167       0.0000000000000000e+00
185 168       0.0000000000000000e+00
185 169       0.0000000000000000e+00
185 170       0.0000000000000000e+00
185 171       0.0000000000000000e+00
185 172       0.0000000000000000e+00
185 173       0.0000000000000000e+00
185 174       0.0000000000000000e+00
185 181       0.0000000000000000e+00
185 182       0.0000000000000000e+00
185 183       0.0000000000000000e+00
185 184       0.0000000000000000e+00
185 186       0.0000000000000000e+00
185 187       0.0000000000000000e+00
185 188       0.0000000000000000e+00
185 189       0.0000000000000000e+00
185 226       0.0000000000000000e+00
185 227       0.0000000000000000e+00
185 228       0.0000000000000000e+00
185 229       0.0000000000000000e+00
185 230       0.0000000000000000e+00
185 231       0.0000000000000000e+00
185 232       0.0000000000000000e+00
185 233       0.0000000000000000e+00
185 234       0.0000000000000000e+00
185 241       0.0000000000000000e+00
185 242       0.0000000000000000e+00
185 243       0.0000000000000000e+00
185 244       0.0000000000000000e+00
185 245       0.0000000000000000e+00
185 246       0.0000000000000000e+00
185 247       0.0000000000000000e+00
185 248       0.0000000000000000e+00
185 249       0.0000000000000000e+00
185 409       0.0000000000000000e+00
185 410       0.0000000000000000e+00
185 411       0.0000000000000000e+00
186 186       0.0000000000000000e+00
186 166       0.0000000000000000e+00
186 167       0.0000000000000000e+00
186 168       0.0000000000000000e+00
186 169       0.0000000000000000e+00
186 170       0.0000000000000000e+00
186 171       0.0000000000000000e+00
186 172       0.0000000000000000e+00
186 173       0.0000000000000000e+00
186 174       0.0000000000000000e+00
186 181       0.0000000000000000e+00
186 182       0.0000000000000000e+00
186 183       0.0000000000000000e+00
186 184       0.0000000000000000e+00
186 185       0.0000000000000000e+00
186 187       0.0000000000000000e+00
186 188       0.0000000000000000e+00
186 189       0.0000000000000000e+00
186 226       0.0000000000000000e+00
186 227       0.0000000000000000e+00
186 228       0.0000000000000000e+00
186 229       0.0000000000000000e+00
186 230       0.0000000000000000e+00
186 231       0.0000000000000000e+00
186 232       0.0000000000000000e+00
186 233       0.0000000000000000e+00
186 234       0.0000000000000000e+00
186 241       0.0000000000000000e+00
186 242       0.0000000000000000e+00
186 243       0.0000000000000000e+00
186 244       0.0000000000000000e+00
186 245       0.0000000000000000e+00
186 246       0.0000000000000000e+00
186 247       0.0000000000000000e+00
186 248       0.0000000000000000e+00
186 249       0.0000000000000000e+00
186 409       0.0000000000000000e+00
186 410       0.0000000000000000e+00
186 411       0.0000000000000000e+00
187 187       0.0000000000000000e+00
187 169       0.0000000000000000e+00
187 170       0.0000000000000000e+00
187 171       0.0000000000000000e+00
187 172       0.0000000000000000e+00
187 173       0.0000000000000000e+00
187 174       0.0000000000000000e+00
187 175       0.0000000000000000e+00
187 176       0.0000000000000000e+00
187 177       0.0000000000000000e+00
187 184       0.0000000000000000e+00
187 185       0.0000000000000000e+00
187 186       0.0000000000000000e+00
187 188       0.0000000000000000e+00
187 189       0.0000000000000000e+00
187 190       0.0000000000000000e+00
187 191       0.0000000000000000e+00
187 192       0.0000000000000000e+00
187 229       0.0000000000000000e+00
187 230       0.0000000000000000e+00
187 231       0.0000000000000000e+00
187 232       0.0000000000000000e+00
187 233       0.0000000000000000e+00
187 234       0.0000000000000000e+00
187 235       0.0000000000000000e+00
187 236       0.0000000000000000e+00
187 237       0.0000000000000000e+00
187 244       0.0000000000000000e+00
187 245       0.0000000000000000e+00
187 246       0.0000000000000000e+00
187 247       0.0000000000000000e+00
187 248       0.0000000000000000e+00
187 249       0.0000000000000000e+00
187 250       0.0000000000000000e+00
187 251       0.0000000000000000e+00
187 252       0.0000000000000000e+00
188 188       0.0000000000000000e+00
188 169       0.0000000000000000e+00
188 170       0.0000000000000000e+00
188 171       0.0000000000000000e+00
188 172       0.0000000000000000e+00
188 173       0.0000000000000000e+00
188 174       0.0000000000000000e+00
188 175       0.0000000000000000e+00
188 176       0.0000000000000000e+00
188 177       0.0000000000000000e+00
188 184       0.0000000000000000e+00
188 185       0.0000000000000000e+00
188 186       0.0000000000000000e+00
188 187       0.0000000000000000e+00
188 189       0.0000000000000000e+00
188 190       0.0000000000000000e+00
188 191       0.0000000000000000e+00
188 192       0.0000000000000000e+00
188 229       0.0000000000000000e+00
188 230       0.0000000000000000e+00
188 231       0.0000000000000000e+00
188 232       0.0000000000000000e+00
188 233       0.0000000000000000e+00
188 234       0.0000000000000000e+00
188 235       0.0000000000000000e+00
188 236       0.0000000000000000e+00
188 237       0.0000000000000000e+00
188 244       0.0000000000000000e+00
188 245       0.0000000000000000e+00
188 246       0.0000000000000000e+00
188 247       0.0000000000000000e+00
188 248       0.0000000000000000e+00
188 249       0.0000000000000000e+00
188 250       0.0000000000000000e+00
188 251       0.0000000000000000e+00
188 252       0.0000000000000000e+00
189 189       0.0000000000000000e+00
189 169       0.0000000000000000e+00
189 170       0.0000000000000000e+00
189 171       0.0000000000000000e+00
189 172       0.0000000000000000e+00
189 173       0.0000000000000000e+00
189 174       0.0000000000000000e+00
189 175       0.0000000000000000e+00
189 176       0.0000000000000000e+00
189 177       0.0000000000000000e+00
189 184       0.0000000000000000e+00
189 185       0.0000000000000000e+00
189 186       0.0000000000000000e+00
189 187       0.0000000000000000e+00
189 188       0.0000000000000000e+00
189 190       0.0000000000000000e+00
189 191       0.0000000000000000e+00
189 192       0.0000000000000000e+00
189 229       0.0000000000000000e+00
189 230       0.0000000000000000e+00
189 231       0.0000000000000000e+00
189 232       0.0000000000000000e+00
189 233       0.0000000000000000e+00
189 234       0.0000000000000000e+00
189 235       0.0000000000000000e+00
189 236       0.0000000000000000e+00
189 237       0.0000000000000000e+00
189 244       0.0000000000000000e+00
189 245       0.0000000000000000e+00
189 246       0.0000000000000000e+00
189 247       0.0000000000000000e+00
189 248       0.0000000000000000e+00
189 249       0.0000000000000000e+00
189 250       0.0000000000000000e+00
189 251       0.0000000000000000e+00
189 252       0.0000000000000000e+00
190 190       0.0000000000000000e+00
190 172       0.0000000000000000e+00
190 173       0.0000000000000000e+00
190 174       0.0000000000000000e+00
190 175       0.0000000000000000e+00
190 176       0.0000000000000000e+00
190 177       0.0000000000000000e+00
190 178       0.0000000000000000e+00
190 179       0.0000000000000000e+00
190 180       0.0000000000000000e+00
190 187       0.0000000000000000e+00
190 188       0.0000000000000000e+00
190 189       0.0000000000000000e+00
190 191       0.0000000000000000e+00
190 192       0.0000000000000000e+00
190 193       0.0000000000000000e+00
190 194       0.0000000000000000e+00
190 195       0.0000000000000000e+00
190 232       0.0000000000000000e+00
190 233       0.0000000000000000e+00
190 234       0.0000000000000000e+00
190 235       0.0000000000000000e+00
190 236       0.0000000000000000e+00
190 237       0.0000000000000000e+00
190 238       0.0000000000000000e+00
190 239       0.0000000000000000e+00
190 240       0.0000000000000000e+00
190 247       0.0000000000000000e+00
190 248       0.0000000000000000e+00
190 249       0.0000000000000000e+00
190 250       0.0000000000000000e+00
190 251       0.0000000000000000e+00
190 252       0.0000000000000000e+00
190 253       0.0000000000000000e+00
190 254       0.0000000000000000e+00
190 255       0.0000000000000000e+00
191 191       0.0000000000000000e+00
191 172       0.0000000000000000e+00
191 173       0.0000000000000000e+00
191 174       0.0000000000000000e+00
191 175       0.0000000000000000e+00
191 176       0.0000000000000000e+00
191 177       0.0000000000000000e+00
191 178       0.0000000000000000e+00
191 179       0.0000000000000000e+00
191 180       0.0000000000000000e+00
191 187       0.0000000000000000e+00
191 188       0.0000000000000000e+00
191 189       0.0000000000000000e+00
191 190       0.0000000000000000e+00
191 192       0.0000000000000000e+00
191 193       0.0000000000000000e+00
191 194       0.0000000000000000e+00
191 195       0.0000000000000000e+00
191 232       0.0000000000000000e+00
191 233       0.0000000000000000e+00
191 234       0.0000000000000000e+00
191 235       0.0000000000000000e+00
191 236       0.0000000000000000e+00
191 237       0.0000000000000000e+00
191 238       0.0000000000000000e+00
191 239       0.0000000000000000e+00
191 240       0.0000000000000000e+00
191 247       0.0000000000000000e+00
191 248       0.0000000000000000e+00
191 249       0.0000000000000000e+00
191 250       0.0000000000000000e+00
191 251       0.0000000000000000e+00
191 252       0.0000000000000000e+00
191 253       0.0000000000000000e+00
191 254       0.0000000000000000e+00
191 255       0.0000000000000000e+00
192 192       0.0000000000000000e+00
192 172       0.0000000000000000e+00
192 173       0.0000000000000000e+00
192 174       0.0000000000000000e+00
192 175       0.0000000000000000e+00
192 176       0.0000000000000000e+00
192 177       0.0000000000000000e+00
192 178       0.0000000000000000e+00
192 179       0.0000000000000000e+00
192 180       0.0000000000000000e+00
192 187       0.0000000000000000e+00
192 188       0.0000000000000000e+00
192 189       0.0000000000000000e+00
192 190       0.0000000000000000e+00
192 191       0.0000000000000000e+00
192 193       0.0000000000000000e+00
192 194       0.0000000000000000e+00
192 195       0.0000000000000000e+00
192 232       0.0000000000000000e+00
192 233       0.0000000000000000e+00
192 234       0.0000000000000000e+00
192 235       0.0000000000000000e+00
192 236       0.0000000000000000e+00
192 237       0.0000000000000000e+00
192 238       0.0000000000000000e+00
192 239       0.0000000000000000e+00
192 240       0.0000000000000000e+00
192 247       0.0000000000000000e+00
192 248       0.0000000000000000e+00
192 249       0.0000000000000000e+00
192 250       0.0000000000000000e+00
192 251       0.0000000000000000e+00
192 252       0.0000000000000000e+00
192 253       0.0000000000000000e+00
192 254       0.0000000000000000e+00
192 255       0.0000000000000000e+00
193 193       0.0000000000000000e+00
193 175       0.0000000000000000e+00
193 176       0.0000000000000000e+00
193 177       0.0000000000000000e+00
193 178       0.0000000000000000e+00
193 179       0.0000000000000000e+00
193 180       0.0000000000000000e+00
193 190       0.0000000000000000e+00
193 191       0.0000000000000000e+00
193 192       0.0000000000000000e+00
193 194       0.0000000000000000e+00
193 195       0.0000000000000000e+00
193 235       0.0000000000000000e+00
193 236       0.0000000000000000e+00
193 237       0.0000000000000000e+00
193 238       0.0000000000000000e+00
193 239       0.0000000000000000e+00
193 240       0.0000000000000000e+00
193 250       0.0000000000000000e+00
193 251       0.0000000000000000e+00
193 252       0.0000000000000000e+00
193 253       0.0000000000000000e+00
193 254       0.0000000000000000e+00
193 255       0.0000000000000000e+00
194 194       0.0000000000000000e+00
194 175       0.0000000000000000e+00
194 176       0.0000000000000000e+00
194 177       0.0000000000000000e+00
194 178       0.0000000000000000e+00
194 179       0.0000000000000000e+00
194 180       0.0000000000000000e+00
194 190       0.0000000000000000e+00
194 191       0.0000000000000000e+00
194 192       0.0000000000000000e+00
194 193       0.0000000000000000e+00
194 195       0.0000000000000000e+00
194 235       0.0000000000000000e+00
194 236       0.0000000000000000e+00
194 237       0.0000000000000000e+00
194 238       0.0000000000000000e+00
194 239       0.0000000000000000e+00
194 240       0.0000000000000000e+00
194 250       0.0000000000000000e+00
194 251       0.0000000000000000e+00
194 252       0.0000000000000000e+00
194 253       0.0000000000000000e+00
194 254       0.0000000000000000e+00
194 255       0.0000000000000000e+00
195 195       0.0000000000000000e+00
195 175       0.0000000000000000e+00
195 176       0.0000000000000000e+00
195 177       0.0000000000000000e+00
195 178       0.0000000000000000e+00
195 179       0.0000000000000000e+00
195 180       0.0000000000000000e+00
195 190       0.0000000000000000e+00
195 191       0.0000000000000000e+00
195 192       0.0000000000000000e+00
195 193       0.0000000000000000e+00
195 194       0.0000000000000000e+00
195 235       0.0000000000000000e+00
195 236       0.0000000000000000e+00
195 237       0.0000000000000000e+00
195 238       0.0000000000000000e+00
195 239       0.0000000000000000e+00
195 240       0.0000000000000000e+00
195 250       0.0000000000000000e+00
195 251       0.0000000000000000e+00
195 252       0.0000000000000000e+00
195 253       0.0000000000000000e+00
195 254       0.0000000000000000e+00
195 255       0.0000000000000000e+00
196 196       0.0000000000000000e+00
196 136       0.0000000000000000e+00
196 137       0.0000000000000000e+00
196 138       0.0000000000000000e+00
196 139       0.0000000000000000e+00
196 140       0.0000000000000000e+00
196 141       0.0000000000000000e+00
196 151       0.0000000000000000e+00
196 152       0.0000000000000000e+00
196 153       0.0000000000000000e+00
196 154       0.0000000000000000e+00
196 155       0.0000000000000000e+00
196 156       0.0000000000000000e+00
196 197       0.0000000000000000e+00
196 198       0.0000000000000000e+00
196 199       0.0000000000000000e+00
196 200       0.0000000000000000e+00
196 201       0.0000000000000000e+00
196 211       0.0000000000000000e+00
196 212       0.0000000000000000e+00
196 213       0.0000000000000000e+00
196 214       0.0000000000000000e+00
196 215       0.0000000000000000e+00
196 216       0.0000000000000000e+00
196 256       0.0000000000000000e+00
196 257       0.0000000000000000e+00
196 258       0.0000000000000000e+00
196 259       0.0000000000000000e+00
196 260       0.0000000000000000e+00
196 261       0.0000000000000000e+00
196 271       0.0000000000000000e+00
196 272       0.0000000000000000e+00
196 273       0.0000000000000000e+00
196 274       0.0000000000000000e+00
196 275       0.0000000000000000e+00
196 276       0.0000000000000000e+00
196 376       0.0000000000000000e+00
196 377       0.0000000000000000e+00
196 378       0.0000000000000000e+00
196 385       0.0000000000000000e+00
196 386       0.0000000000000000e+00
196 387       0.0000000000000000e+00
196 403       0.0000000000000000e+00
196 404       0.0000000000000000e+00
196 405       0.0000000000000000e+00
196 412       0.0000000000000000e+00
196 413       0.0000000000000000e+00
196 414       0.0000000000000000e+00
196 430       0.0000000000000000e+00
196 431       0.0000000000000000e+00
196 432       0.0000000000000000e+00
196 439       0.0000000000000000e+00
196 440       0.0000000000000000e+00
196 441       0.0000000000000000e+00
197 197       0.0000000000000000e+00
197 136       0.0000000000000000e+00
197 137       0.0000000000000000e+00
197 138       0.0000000000000000e+00
197 139       0.0000000000000000e+00
197 140       0.0000000000000000e+00
197 141       0.0000000000000000e+00
197 151       0.0000000000000000e+00
197 152       0.0000000000000000e+00
197 153       0.0000000000000000e+00
197 154       0.0000000000000000e+00
197 155       0.0000000000000000e+00
197 156       0.0000000000000000e+00
197 196       0.0000000000000000e+00
197 198       0.0000000000000000e+00
197 199       0.0000000000000000e+00
197 200       0.0000000000000000e+00
197 201       0.0000000000000000e+00
197 211       0.0000000000000000e+00
197 212       0.0000000000000000e+00
197 213       0.0000000000000000e+00
197 214       0.0000000000000000e+00
197 215       0.0000000000000000e+00
197 216       0.0000000000000000e+00
197 256       0.0000000000000000e+00
197 257       0.0000000000000000e+00
197 258       0.0000000000000000e+00
197 259       0.0000000000000000e+00
197 260       0.0000000000000000e+00
197 261       0.0000000000000000e+00
197 271       0.0000000000000000e+00
197 272       0.0000000000000000e+00
197 273       0.0000000000000000e+00
197 274       0.0000000000000000e+00
197 275       0.0000000000000000e+00
197 276       0.0000000000000000e+00
197 376       0.0000000000000000e+00
197 377       0.0000000000000000e+00
197 378       0.0000000000000000e+00
197 385       0.0000000000000000e+00
197 386       0.0000000000000000e+00
197 387       0.0000000000000000e+00
197 403       0.0000000000000000e+00
197 404       0.0000000000000000e+00
197 405       0.0000000000000000e+00
197 412       0.0000000000000000e+00
197 413       0.0000000000000000e+00
197 414       0.0000000000000000e+00
197 430       0.0000000000000000e+00
197 431       0.0000000000000000e+00
197 432       0.0000000000000000e+00
197 439       0.0000000000000000e+00
197 440       0.0000000000000000e+00
197 441       0.0000000000000000e+00
198 198       0.0000000000000000e+00
198 136       0.0000000000000000e+00
198 137       0.0000000000000000e+00
198 138       0.0000000000000000e+00
198 139       0.0000000000000000e+00
198 140       0.0000000000000000e+00
198 141       0.0000000000000000e+00
198 151       0.0000000000000000e+00
198 152       0.0000000000000000e+00
198 153       0.0000000000000000e+00
198 154       0.0000000000000000e+00
198 155       0.0000000000000000e+00
198 156       0.0000000000000000e+00
198 196       0.0000000000000000e+00
198 197       0.0000000000000000e+00
198 199       0.0000000000000000e+00
198 200       0.0000000000000000e+00
198 201       0.0000000000000000e+00
198 211       0.0000000000000000e+00
198 212       0.0000000000000000e+00
198 213       0.0000000000000000e+00
198 214       0.0000000000000000e+00
198 215       0.0000000000000000e+00
198 216       0.0000000000000000e+00
198 256       0.0000000000000000e+00
198 257       0.0000000000000000e+00
198 258       0.0000000000000000e+00
198 259       0.0000000000000000e+00
198 260       0.0000000000000000e+00
198 261       0.0000000000000000e+00
198 271       0.0000000000000000e+00
198 272       0.0000000000000000e+00
198 273       0.0000000000000000e+00
198 274       0.0000000000000000e+00
198 275       0.0000000000000000e+00
198 276       0.0000000000000000e+00
198 376       0.0000000000000000e+00
198 377       0.0000000000000000e+00
198 378       0.0000000000000000e+00
198 385       0.0000000000000000e+00
198 386       0.0000000000000000e+00
198 387       0.0000000000000000e+00
198 403       0.0000000000000000e+00
198 404       0.0000000000000000e+00
198 405       0.0000000000000000e+00
198 412       0.0000000000000000e+00
198 413       0.0000000000000000e+00
198 414       0.0000000000000000e+00
198 430       0.0000000000000000e+00
198 431       0.0000000000000000e+00
198 432       0.0000000000000000e+00
198 439       0.0000000000000000e+00
198 440       0.0000000000000000e+00
198 441       0.0000000000000000e+00
199 199       0.0000000000000000e+00
199 136       0.0000000000000000e+00
199 137       0.0000000000000000e+00
199 138       0.0000000000000000e+00
199 139       0.0000000000000000e+00
199 140       0.0000000000000000e+00
199 141       0.0000000000000000e+00
199 142       0.0000000000000000e+00
199 143       0.0000000000000000e+00
199 144       0.0000000000000000e+00
199 151       0.0000000000000000e+00
199 152       0.0000000000000000e+00
199 153       0.0000000000000000e+00
199 154       0.0000000000000000e+00
199 155       0.0000000000000000e+00
199 156       0.0000000000000000e+00
199 157       0.0000000000000000e+00
199 158       0.0000000000000000e+00
199 159       0.0000000000000000e+00
199 196       0.0000000000000000e+00
199 197       0.0000000000000000e+00
199 198       0.0000000000000000e+00
199 200       0.0000000000000000e+00
199 201       0.0000000000000000e+00
199 202       0.0000000000000000e+00
199 203       0.0000000000000000e+00
199 204       0.0000000000000000e+00
199 211       0.0000000000000000e+00
199 212       0.0000000000000000e+00
199 213       0.0000000000000000e+00
199 214       0.0000000000000000e+00
199 215       0.0000000000000000e+00
199 216       0.0000000000000000e+00
199 217       0.0000000000000000e+00
199 218       0.0000000000000000e+00
199 219       0.0000000000000000e+00
199 256       0.0000000000000000e+00
199 257       0.0000000000000000e+00
199 258       0.0000000000000000e+00
199 259       0.0000000000000000e+00
199 260       0.0000000000000000e+00
199 261       0.0000000000000000e+00
199 262       0.0000000000000000e+00
199 263       0.0000000000000000e+00
199 264       0.0000000000000000e+00
199 271       0.0000000000000000e+00
199 272       0.0000000000000000e+00
199 273       0.0000000000000000e+00
199 274       0.0000000000000000e+00
199 275       0.0000000000000000e+00
199 276       0.0000000000000000e+00
199 277       0.0000000000000000e+00
199 278       0.0000000000000000e+00
199 279       0.0000000000000000e+00
199 403       0.0000000000000000e+00
199 404       0.0000000000000000e+00
199 405       0.0000000000000000e+00
199 412       0.0000000000000000e+00
199 413       0.0000000000000000e+00
199 414       0.0000000000000000e+00
200 200       0.0000000000000000e+00
200 136       0.0000000000000000e+00
200 137       0.0000000000000000e+00
200 138       0.0000000000000000e+00
200 139       0.0000000000000000e+00
200 140       0.0000000000000000e+00
200 141       0.0000000000000000e+00
200 142       0.0000000000000000e+00
200 143       0.0000000000000000e+00
200 144       0.0000000000000000e+00
200 151       0.0000000000000000e+00
200 152       0.0000000000000000e+00
200 153       0.0000000000000000e+00
200 154       0.0000000000000000e+00
200 155       0.0000000000000000e+00
200 156       0.0000000000000000e+00
200 157       0.0000000000000000e+00
200 158       0.0000000000000000e+00
200 159       0.0000000000000000e+00
200 196       0.0000000000000000e+00
200 197       0.0000000000000000e+00
200 198       0.0000000000000000e+00
200 199       0.0000000000000000e+00
200 201       0.0000000000000000e+00
200 202       0.0000000000000000e+00
200 203       0.0000000000000000e+00
200 204       0.0000000000000000e+00
200 211       0.0000000000000000e+00
200 212       0.0000000000000000e+00
200 213       0.0000000000000000e+00
200 214       0.0000000000000000e+00
200 215       0.0000000000000000e+00
200 216       0.0000000000000000e+00
200 217       0.0000000000000000e+00
200 218       0.0000000000000000e+00
200 219       0.0000000000000000e+00
200 256       0.0000000000000000e+00
200 257       0.0000000000000000e+00
200 258       0.0000000000000000e+00
200 259       0.0000000000000000e+00
200 260       0.0000000000000000e+00
200 261       0.0000000000000000e+00
200 262       0.0000000000000000e+00
200 263       0.0000000000000000e+00
200 264       0.0000000000000000e+00
200 271       0.0000000000000000e+00
200 272       0.0000000000000000e+00
200 273       0.0000000000000000e+00
200 274       0.0000000000000000e+00
200 275       0.0000000000000000e+00
200 276       0.0000000000000000e+00
200 277       0.0000000000000000e+00
200 278       0.0000000000000000e+00
200 279       0.0000000000000000e+00
200 403       0.0000000000000000e+00
200 404       0.0000000000000000e+00
200 405       0.0000000000000000e+00
200 412       0.0000000000000000e+00
200 413       0.0000000000000000e+00
200 414       0.0000000000000000e+00
201 201       0.0000000000000000e+00
201 136       0.0000000000000000e+00
201 137       0.0000000000000000e+00
201 138       0.0000000000000000e+00
201 139       0.0000000000000000e+00
201 140       0.0000000000000000e+00
201 141       0.0000000000000000e+00
201 142       0.0000000000000000e+00
201 143       0.0000000000000000e+00
201 144       0.0000000000000000e+00
201 151       0.0000000000000000e+00
201 152       0.0000000000000000e+00
201 153       0.0000000000000000e+00
201 154       0.0000000000000000e+00
201 155       0.0000000000000000e+00
201 156       0.0000000000000000e+00
201 157       0.0000000000000000e+00
201 158       0.0000000000000000e+00
201 159       0.0000000000000000e+00
201 196       0.0000000000000000e+00
201 197       0.0000000000000000e+00
201 198       0.0000000000000000e+00
201 199       0.0000000000000000e+00
201 200       0.0000000000000000e+00
201 202       0.0000000000000000e+00
201 203       0.0000000000000000e+00
201 204       0.0000000000000000e+00
201 211       0.0000000000000000e+00
201 212       0.0000000000000000e+00
201 213       0.0000000000000000e+00
201 214       0.0000000000000000e+00
201 215       0.0000000000000000e+00
201 216       0.0000000000000000e+00
201 217       0.0000000000000000e+00
201 218       0.0000000000000000e+00
201 219       0.0000000000000000e+00
201 256       0.0000000000000000e+00
201 257       0.0000000000000000e+00
201 258       0.0000000000000000e+00
201 259       0.0000000000000000e+00
201 260       0.0000000000000000e+00
201 261       0.0000000000000000e+00
201 262       0.0000000000000000e+00
201 263       0.0000000000000000e+00
201 264       0.0000000000000000e+00
201 271       0.0000000000000000e+00
201 272       0.0000000000000000e+00
201 273       0.0000000000000000e+00
201 274       0.0000000000000000e+00
201 275       0.0000000000000000e+00
201 276       0.0000000000000000e+00
201 277       0.0000000000000000e+00
201 278       0.0000000000000000e+00
201 279       0.0000000000000000e+00
201 403       0.0000000000000000e+00
201 404       0.0000000000000000e+00
201 405       0.0000000000000000e+00
201 412       0.0000000000000000e+00
201 413       0.0000000000000000e+00
201 414       0.0000000000000000e+00
202 202       0.0000000000000000e+00
202 139       0.0000000000000000e+00
202 140       0.0000000000000000e+00
202 141       0.0000000000000000e+00
202 142       0.0000000000000000e+00
202 143       0.0000000000000000e+00
202 144       0.0000000000000000e+00
202 145       0.0000000000000000e+00
202 146       0.0000000000000000e+00
202 147       0.0000000000000000e+00
202 154       0.0000000000000000e+00
202 155       0.0000000000000000e+00
202 156       0.0000000000000000e+00
202 157       0.0000000000000000e+00
202 158       0.0000000000000000e+00
202 159       0.0000000000000000e+00
202 160       0.0000000000000000e+00
202 161       0.0000000000000000e+00
202 162       0.0000000000000000e+00
202 199       0.0000000000000000e+00
202 200       0.0000000000000000e+00
202 201       0.0000000000000000e+00
202 203       0.0000000000000000e+00
202 204       0.0000000000000000e+00
202 205       0.0000000000000000e+00
202 206       0.0000000000000000e+00
202 207       0.0000000000000000e+00
202 214       0.0000000000000000e+00
202 215       0.0000000000000000e+00
202 216       0.0000000000000000e+00
202 217       0.0000000000000000e+00
202 218       0.0000000000000000e+00
202 219       0.0000000000000000e+00
202 220       0.0000000000000000e+00
202 221       0.0000000000000000e+00
202 222       0.0000000000000000e+00
202 259       0.0000000000000000e+00
202 260       0.0000000000000000e+00
202 261       0.0000000000000000e+00
202 262       0.0000000000000000e+00
202 263       0.0000000000000000e+00
202 264       0.0000000000000000e+00
202 265       0.0000000000000000e+00
202 266       0.0000000000000000e+00
202 267       0.0000000000000000e+00
202 274       0.0000000000000000e+00
202 275       0.0000000000000000e+00
202 276       0.0000000000000000e+00
202 277       0.0000000000000000e+00
202 278       0.0000000000000000e+00
202 279       0.0000000000000000e+00
202 280       0.0000000000000000e+00
202 281       0.0000000000000000e+00
202 282       0.0000000000000000e+00
203 203       0.0000000000000000e+00
203 139       0.0000000000000000e+00
203 140       0.0000000000000000e+00
203 141       0.0000000000000000e+00
203 142       0.0000000000000000e+00
203 143       0.0000000000000000e+00
203 144       0.0000000000000000e+00
203 145       0.0000000000000000e+00
203 146       0.0000000000000000e+00
203 147       0.0000000000000000e+00
203 154       0.0000000000000000e+00
203 155       0.0000000000000000e+00
203 156       0.0000000000000000e+00
203 157       0.0000000000000000e+00
203 158       0.0000000000000000e+00
203 159       0.0000000000000000e+00
203 160       0.0000000000000000e+00
203 161       0.0000000000000000e+00
203 162       0.0000000000000000e+00
203 199       0.0000000000000000e+00
203 200       0.0000000000000000e+00
203 201       0.0000000000000000e+00
203 202       0.0000000000000000e+00
203 204       0.0000000000000000e+00
203 205       0.0000000000000000e+00
203 206       0.0000000000000000e+00
203 207       0.0000000000000000e+00
203 214       0.0000000000000000e+00
203 215       0.0000000000000000e+00
203 216       0.0000000000000000e+00
203 217       0.0000000000000000e+00
203 218       0.0000000000000000e+00
203 219       0.0000000000000000e+00
203 220       0.0000000000000000e+00
203 221       0.0000000000000000e+00
203 222       0.0000000000000000e+00
203 259       0.0000000000000000e+00
203 260       0.0000000000000000e+00
203 261       0.0000000000000000e+00
203 262       0.0000000000000000e+00
203 263       0.0000000000000000e+00
203 264       0.0000000000000000e+00
203 265       0.0000000000000000e+00
203 266       0.0000000000000000e+00
203 267       0.0000000000000000e+00
203 274       0.0000000000000000e+00
203 275       0.0000000000000000e+00
203 276       0.0000000000000000e+00
203 277       0.0000000000000000e+00
203 278       0.0000000000000000e+00
203 279       0.0000000000000000e+00
203 280       0.0000000000000000e+00
203 281       0.0000000000000000e+00
203 282       0.0000000000000000e+00
204 204       0.0000000000000000e+00
204 139       0.0000000000000000e+00
204 140       0.0000000000000000e+00
204 141       0.0000000000000000e+00
204 142       0.0000000000000000e+00
204 143       0.0000000000000000e+00
204 144       0.0000000000000000e+00
204 145       0.0000000000000000e+00
204 146       0.0000000000000000e+00
204 147       0.0000000000000000e+00
204 154       0.0000000000000000e+00
204 155       0.0000000000000000e+00
204 156       0.0000000000000000e+00
204 157       0.0000000000000000e+00
204 158       0.0000000000000000e+00
204 159       0.0000000000000000e+00
204 160       0.0000000000000000e+00
204 161       0.0000000000000000e+00
204 162       0.0000000000000000e+00
204 199       0.0000000000000000e+00
204 200       0.0000000000000000e+00
204 201       0.0000000000000000e+00
204 202       0.0000000000000000e+00
204 203       0.0000000000000000e+00
204 205       0.0000000000000000e+00
204 206       0.0000000000000000e+00
204 207       0.0000000000000000e+00
204 214       0.0000000000000000e+00
204 215       0.0000000000000000e+00
204 216       0.0000000000000000e+00
204 217       0.0000000000000000e+00
204 218       0.0000000000000000e+00
204 219       0.0000000000000000e+00
204 220       0.0000000000000000e+00
204 221       0.0000000000000000e+00
204 222       0.0000000000000000e+00
204 259       0.0000000000000000e+00
204 260       0.0000000000000000e+00
204 261       0.0000000000000000e+00
204 262       0.0000000000000000e+00
204 263       0.0000000000000000e+00
204 264       0.0000000000000000e+00
204 265       0.0000000000000000e+00
204 266       0.0000000000000000e+00
204 267       0.0000000000000000e+00
204 274       0.0000000000000000e+00
204 275       0.0000000000000000e+00
204 276       0.0000000000000000e+00
204 277       0.0000000000000000e+00
204 278       0.0000000000000000e+00
204 279       0.0000000000000000e+00
204 280       0.0000000000000000e+00
204 281       0.0000000000000000e+00
204 282       0.0000000000000000e+00
205 205       0.0000000000000000e+00
205 142       0.0000000000000000e+00
205 143       0.0000000000000000e+00
205 144       0.0000000000000000e+00
205 145       0.0000000000000000e+00
205 146       0.0000000000000000e+00
205 147       0.0000000000000000e+00
205 148       0.0000000000000000e+00
205 149       0.0000000000000000e+00
205 150       0.0000000000000000e+00
205 157       0.0000000000000000e+00
205 158       0.0000000000000000e+00
205 159       0.0000000000000000e+00
205 160       0.0000000000000000e+00
205 161       0.0000000000000000e+00
205 162       0.0000000000000000e+00
205 163       0.0000000000000000e+00
205 164       0.0000000000000000e+00
205 165       0.0000000000000000e+00
205 202       0.0000000000000000e+00
205 203       0.0000000000000000e+00
205 204       0.0000000000000000e+00
205 206       0.0000000000000000e+00
205 207       0.0000000000000000e+00
205 208       0.0000000000000000e+00
205 209       0.0000000000000000e+00
205 210       0.0000000000000000e+00
205 217       0.0000000000000000e+00
205 218       0.0000000000000000e+00
205 219       0.0000000000000000e+00
205 220       0.0000000000000000e+00
205 221       0.0000000000000000e+00
205 222       0.0000000000000000e+00
205 223       0.0000000000000000e+00
205 224       0.0000000000000000e+00
205 225       0.0000000000000000e+00
205 262       0.0000000000000000e+00
205 263       0.0000000000000000e+00
205 264       0.0000000000000000e+00
205 265       0.0000000000000000e+00
205 266       0.0000000000000000e+00
205 267       0.0000000000000000e+00
205 268       0.0000000000000000e+00
205 269       0.0000000000000000e+00
205 270       0.0000000000000000e+00
205 277       0.0000000000000000e+00
205 278       0.0000000000000000e+00
205 279       0.0000000000000000e+00
205 280       0.0000000000000000e+00
205 281       0.0000000000000000e+00
205 282       0.0000000000000000e+00
205 283       0.0000000000000000e+00
205 284       0.0000000000000000e+00
205 285       0.0000000000000000e+00
206 206       0.0000000000000000e+00
206 142       0.0000000000000000e+00
206 143       0.0000000000000000e+00
206 144       0.0000000000000000e+00
206 145       0.0000000000000000e+00
206 146       0.0000000000000000e+00
206 147       0.0000000000000000e+00
206 148       0.0000000000000000e+00
206 149       0.0000000000000000e+00
206 150       0.0000000000000000e+00
206 157       0.0000000000000000e+00
206 158       0.0000000000000000e+00
206 159       0.0000000000000000e+00
206 160       0.0000000000000000e+00
206 161       0.0000000000000000e+00
206 162       0.0000000000000000e+00
206 163       0.0000000000000000e+00
206 164       0.0000000000000000e+00
206 165       0.0000000000000000e+00
206 202       0.0000000000000000e+00
206 203       0.0000000000000000e+00
206 204       0.0000000000000000e+00
206 205       0.0000000000000000e+00
206 207       0.0000000000000000e+00
206 208       0.0000000000000000e+00
206 209       0.0000000000000000e+00
206 210       0.0000000000000000e+00
206 217       0.0000000000000000e+00
206 218       0.0000000000000000e+00
206 219       0.0000000000000000e+00
206 220       0.0000000000000000e+00
206 221       0.0000000000000000e+00
206 222       0.0000000000000000e+00
206 223       0.0000000000000000e+00
206 224       0.0000000000000000e+00
206 225       0.0000000000000000e+00
206 262       0.0000000000000000e+00
206 263       0.0000000000000000e+00
206 264       0.0000000000000000e+00
206 265       0.0000000000000000e+00
206 266       0.0000000000000000e+00
206 267       0.0000000000000000e+00
206 268       0.0000000000000000e+00
206 269       0.0000000000000000e+00
206 270       0.0000000000000000e+00
206 277       0.0000000000000000e+00
206 278       0.0000000000000000e+00
206 279       0.0000000000000000e+00
206 280       0.0000000000000000e+00
206 281       0.0000000000000000e+00
206 282       0.0000000000000000e+00
206 283       0.0000000000000000e+00
206 284       0.0000000000000000e+00
206 285       0.0000000000000000e+00
207 207       0.0000000000000000e+00
207 142       0.0000000000000000e+00
207 143       0.0000000000000000e+00
207 144       0.0000000000000000e+00
207 145       0.0000000000000000e+00
207 146       0.0000000000000000e+00
207 147       0.0000000000000000e+00
207 148       0.0000000000000000e+00
207 149       0.0000000000000000e+00
207 150       0.0000000000000000e+00
207 157       0.0000000000000000e+00
207 158       0.0000000000000000e+00
207 159       0.0000000000000000e+00
207 160       0.0000000000000000e+00
207 161       0.0000000000000000e+00
207 162       0.0000000000000000e+00
207 163       0.0000000000000000e+00
207 164       0.0000000000000000e+00
207 165       0.0000000000000000e+00
207 202       0.0000000000000000e+00
207 203       0.0000000000000000e+00
207 204       0.0000000000000000e+00
207 205       0.0000000000000000e+00
207 206       0.0000000000000000e+00
207 208       0.0000000000000000e+00
207 209       0.0000000000000000e+00
207 210       0.0000000000000000e+00
207 217       0.0000000000000000e+00
207 218       0.0000000000000000e+00
207 219       0.0000000000000000e+00
207 220       0.0000000000000000e+00
207 221       0.0000000000000000e+00
207 222       0.0000000000000000e+00
207 223       0.0000000000000000e+00
207 224       0.0000000000000000e+00
207 225       0.0000000000000000e+00
207 262       0.0000000000000000e+00
207 263       0.0000000000000000e+00
207 264       0.0000000000000000e+00
207 265       0.0000000000000000e+00
207 266       0.0000000000000000e+00
207 267       0.0000000000000000e+00
207 268       0.0000000000000000e+00
207 269       0.0000000000000000e+00
207 270       0.0000000000000000e+00
207 277       0.0000000000000000e+00
207 278       0.0000000000000000e+00
207 279       0.0000000000000000e+00
207 280       0.0000000000000000e+00
207 281       0.0000000000000000e+00
207 282       0.0000000000000000e+00
207 283       0.0000000000000000e+00
207 284       0.0000000000000000e+00
207 285       0.0000000000000000e+00
208 208       0.0000000000000000e+00
208 145       0.0000000000000000e+00
208 146       0.0000000000000000e+00
208 147       0.0000000000000000e+00
208 148       0.0000000000000000e+00
208 149       0.0000000000000000e+00
208 150       0.0000000000000000e+00
208 160       0.0000000000000000e+00
208 161       0.0000000000000000e+00
208 162       0.0000000000000000e+00
208 163       0.0000000000000000e+00
208 164       0.0000000000000000e+00
208 165       0.0000000000000000e+00
208 205       0.0000000000000000e+00
208 206       0.0000000000000000e+00
208 207       0.0000000000000000e+00
208 209       0.0000000000000000e+00
208 210       0.0000000000000000e+00
208 220       0.0000000000000000e+00
208 221       0.0000000000000000e+00
208 222       0.0000000000000000e+00
208 223       0.0000000000000000e+00
208 224       0.0000000000000000e+00
208 225       0.0000000000000000e+00
208 265       0.0000000000000000e+00
208 266       0.0000000000000000e+00
208 267       0.0000000000000000e+00
208 268       0.0000000000000000e+00
208 269       0.0000000000000000e+00
208 270       0.0000000000000000e+00
208 280       0.0000000000000000e+00
208 281       0.0000000000000000e+00
208 282       0.0000000000000000e+00
208 283       0.0000000000000000e+00
208 284       0.0000000000000000e+00
208 285       0.0000000000000000e+00
209 209       0.0000000000000000e+00
209 145       0.0000000000000000e+00
209 146       0.0000000000000000e+00
209 147       0.0000000000000000e+00
209 148       0.0000000000000000e+00
209 149       0.0000000000000000e+00
209 150       0.0000000000000000e+00
209 160       0.0000000000000000e+00
209 161       0.0000000000000000e+00
209 162       0.0000000000000000e+00
209 163       0.0000000000000000e+00
209 164       0.0000000000000000e+00
209 165       0.0000000000000000e+00
209 205       0.0000000000000000e+00
209 206       0.0000000000000000e+00
209 207       0.0000000000000000e+00
209 208       0.0000000000000000e+00
209 210       0.0000000000000000e+00
209 220       0.0000000000000000e+00
209 221       0.0000000000000000e+00
209 222       0.0000000000000000e+00
209 223       0.0000000000000000e+00
209 224       0.0000000000000000e+00
209 225       0.0000000000000000e+00
209 265       0.0000000000000000e+00
209 266       0.0000000000000000e+00
209 267       0.0000000000000000e+00
209 268       0.0000000000000000e+00
209 269       0.0000000000000000e+00
209 270       0.0000000000000000e+00
209 280       0.0000000000000000e+00
209 281       0.0000000000000000e+00
209 282       0.0000000000000000e+00
209 283       0.0000000000000000e+00
209 284       0.0000000000000000e+00
209 285       0.0000000000000000e+00
210 210       0.0000000000000000e+00
210 145       0.0000000000000000e+00
210 146       0.0000000000000000e+00
210 147       0.0000000000000000e+00
210 148       0.0000000000000000e+00
210 149       0.0000000000000000e+00
210 150       0.0000000000000000e+00
210 160       0.0000000000000000e+00
210 161       0.0000000000000000e+00
210 162       0.0000000000000000e+00
210 163       0.0000000000000000e+00
210 164       0.0000000000000000e+00
210 165       0.0000000000000000e+00
210 205       0.0000000000000000e+00
210 206       0.0000000000000000e+00
210 207       0.0000000000000000e+00
210 208       0.0000000000000000e+00
210 209       0.0000000000000000e+00
210 220       0.0000000000000000e+00
210 221       0.0000000000000000e+00
210 222       0.0000000000000000e+00
210 223       0.0000000000000000e+00
210 224       0.0000000000000000e+00
210 225       0.0000000000000000e+00
210 265       0.0000000000000000e+00
210 266       0.0000000000000000e+00
210 267       0.0000000000000000e+00
210 268       0.0000000000000000e+00
210 269       0.0000000000000000e+00
210 270       0.0000000000000000e+00
210 280       0.0000000000000000e+00
210 281       0.0000000000000000e+00
210 282       0.0000000000000000e+00
210 283       0.0000000000000000e+00
210 284       0.0000000000000000e+00
210 285       0.0000000000000000e+00
211 211       0.0000000000000000e+00
211 136       0.0000000000000000e+00
211 137       0.0000000000000000e+00
211 138       0.0000000000000000e+00
211 139       0.0000000000000000e+00
211 140       0.0000000000000000e+00
211 141       0.0000000000000000e+00
211 151       0.0000000000000000e+00
211 152       0.0000000000000000e+00
211 153       0.0000000000000000e+00
211 154       0.0000000000000000e+00
211 155       0.0000000000000000e+00
211 156       0.0000000000000000e+00
211 166       0.0000000000000000e+00
211 167       0.0000000000000000e+00
211 168       0.0000000000000000e+00
211 169       0.0000000000000000e+00
211 170       0.0000000000000000e+00
211 171       0.0000000000000000e+00
211 196       0.0000000000000000e+00
211 197       0.0000000000000000e+00
211 198       0.0000000000000000e+00
211 199       0.0000000000000000e+00
211 200       0.0000000000000000e+00
211 201       0.0000000000000000e+00
211 212       0.0000000000000000e+00
211 213       0.0000000000000000e+00
211 214       0.0000000000000000e+00
211 215       0.0000000000000000e+00
211 216       0.0000000000000000e+00
211 226       0.0000000000000000e+00
211 227       0.0000000000000000e+00
211 228       0.0000000000000000e+00
211 229       0.0000000000000000e+00
211 230       0.0000000000000000e+00
211 231       0.0000000000000000e+00
211 256       0.0000000000000000e+00
211 257       0.0000000000000000e+00
211 258       0.0000000000000000e+00
211 259       0.0000000000000000e+00
211 260       0.0000000000000000e+00
211 261       0.0000000000000000e+00
211 271       0.0000000000000000e+00
211 272       0.0000000000000000e+00
211 273       0.0000000000000000e+00
211 274       0.0000000000000000e+00
211 275       0.0000000000000000e+00
211 276       0.0000000000000000e+00
211 286       0.0000000000000000e+00
211 287       0.0000000000000000e+00
211 288       0.0000000000000000e+00
211 289       0.0000000000000000e+00
211 290       0.0000000000000000e+00
211 291       0.0000000000000000e+00
211 376       0.0000000000000000e+00
211 377       0.0000000000000000e+00
211 378       0.0000000000000000e+00
211 379       0.0000000000000000e+00
211 380       0.0000000000000000e+00
211 381       0.0000000000000000e+00
211 385       0.0000000000000000e+00
211 386       0.0000000000000000e+00
211 387       0.0000000000000000e+00
211 388       0.0000000000000000e+00
211 389       0.0000000000000000e+00
211 390       0.0000000000000000e+00
211 403       0.0000000000000000e+00
211 404       0.0000000000000000e+00
211 405       0.0000000000000000e+00
211 406       0.0000000000000000e+00
211 407       0.0000000000000000e+00
211 408       0.0000000000000000e+00
211 412       0.0000000000000000e+00
211 413       0.0000000000000000e+00
211 414       0.0000000000000000e+00
211 415       0.0000000000000000e+00
211 416       0.0000000000000000e+00
211 417       0.0000000000000000e+00
211 430       0.0000000000000000e+00
211 431       0.0000000000000000e+00
211 432       0.0000000000000000e+00
211 433       0.0000000000000000e+00
211 434       0.0000000000000000e+00
211 435       0.0000000000000000e+00
211 439       0.0000000000000000e+00
211 440       0.0000000000000000e+00
211 441       0.0000000000000000e+00
211 442       0.0000000000000000e+00
211 443       0.0000000000000000e+00
211 444       0.0000000000000000e+00
212 212       0.0000000000000000e+00
212 136       0.0000000000000000e+00
212 137       0.0000000000000000e+00
212 138       0.0000000000000000e+00
212 139       0.0000000000000000e+00
212 140       0.0000000000000000e+00
212 141       0.0000000000000000e+00
212 151       0.0000000000000000e+00
212 152       0.0000000000000000e+00
212 153       0.0000000000000000e+00
212 154       0.0000000000000000e+00
212 155       0.0000000000000000e+00
212 156       0.0000000000000000e+00
212 166       0.0000000000000000e+00
212 167       0.0000000000000000e+00
212 168       0.0000000000000000e+00
212 169       0.0000000000000000e+00
212 170       0.0000000000000000e+00
212 171       0.0000000000000000e+00
212 196       0.0000000000000000e+00
212 197       0.0000000000000000e+00
212 198       0.0000000000000000e+00
212 199       0.0000000000000000e+00
212 200       0.0000000000000000e+00
212 201       0.0000000000000000e+00
212 211       0.0000000000000000e+00
212 213       0.0000000000000000e+00
212 214       0.0000000000000000e+00
212 215       0.0000000000000000e+00
212 216       0.0000000000000000e+00
212 226       0.0000000000000000e+00
212 227       0.0000000000000000e+00
212 228       0.0000000000000000e+00
212 229       0.0000000000000000e+00
212 230       0.0000000000000000e+00
212 231       0.0000000000000000e+00
212 256       0.0000000000000000e+00
212 257       0.0000000000000000e+00
212 258       0.0000000000000000e+00
212 259       0.0000000000000000e+00
212 260       0.0000000000000000e+00
212 261       0.0000000000000000e+00
212 271       0.0000000000000000e+00
212 272       0.0000000000000000e+00
212 273       0.0000000000000000e+00
212 274       0.0000000000000000e+00
212 275       0.0000000000000000e+00
212 276       0.0000000000000000e+00
212 286       0.0000000000000000e+00
212 287       0.0000000000000000e+00
212 288       0.0000000000000000e+00
212 289       0.0000000000000000e+00
212 290       0.0000000000000000e+00
212 291       0.0000000000000000e+00
212 376       0.0000000000000000e+00
212 377       0.0000000000000000e+00
212 378       0.0000000000000000e+00
212 379       0.0000000000000000e+00
212 380       0.0000000000000000e+00
212 381       0.0000000000000000e+00
212 385       0.0000000000000000e+00
212 386       0.0000000000000000e+00
212 387       0.0000000000000000e+00
212 388       0.0000000000000000e+00
212 389       0.0000000000000000e+00
212 390       0.0000000000000000e+00
212 403       0.0000000000000000e+00
212 404       0.0000000000000000e+00
212 405       0.0000000000000000e+00
212 406       0.0000000000000000e+00
212 407       0.0000000000000000e+00
212 408       0.0000000000000000e+00
212 412       0.0000000000000000e+00
212 413       0.0000000000000000e+00
212 414       0.0000000000000000e+00
212 415       0.0000000000000000e+00
212 416       0.0000000000000000e+00
212 417       0.0000000000000000e+00
212 430       0.0000000000000000e+00
212 431       0.0000000000000000e+00
212 432       0.0000000000000000e+00
212 433       0.0000000000000000e+00
212 434       0.0000000000000000e+00
212 435       0.0000000000000000e+00
212 439       0.0000000000000000e+00
212 440       0.0000000000000000e+00
212 441       0.0000000000000000e+00
212 442       0.0000000000000000e+00
212 443       0.0000000000000000e+00
212 444       0.0000000000000000e+00
213 213       0.0000000000000000e+00
213 136       0.0000000000000000e+00
213 137       0.0000000000000000e+00
213 138       0.0000000000000000e+00
213 139       0.0000000000000000e+00
213 140       0.0000000000000000e+00
213 141       0.0000000000000000e+00
213 151       0.0000000000000000e+00
213 152       0.0000000000000000e+00
213 153       0.0000000000000000e+00
213 154       0.0000000000000000e+00
213 155       0.0000000000000000e+00
213 156       0.0000000000000000e+00
213 166       0.0000000000000000e+00
213 167       0.0000000000000000e+00
213 168       0.0000000000000000e+00
213 169       0.0000000000000000e+00
213 170       0.0000000000000000e+00
213 171       0.0000000000000000e+00
213 196       0.0000000000000000e+00
213 197       0.0000000000000000e+00
213 198       0.0000000000000000e+00
213 199       0.0000000000000000e+00
213 200       0.0000000000000000e+00
213 201       0.0000000000000000e+00
213 211       0.0000000000000000e+00
213 212       0.0000000000000000e+00
213 214       0.0000000000000000e+00
213 215       0.0000000000000000e+00
213 216       0.0000000000000000e+00
213 226       0.0000000000000000e+00
213 227       0.0000000000000000e+00
213 228       0.0000000000000000e+00
213 229       0.0000000000000000e+00
213 230       0.0000000000000000e+00
213 231       0.0000000000000000e+00
213 256       0.0000000000000000e+00
213 257       0.0000000000000000e+00
213 258       0.0000000000000000e+00
213 259       0.0000000000000000e+00
213 260       0.0000000000000000e+00
213 261       0.0000000000000000e+00
213 271       0.0000000000000000e+00
213 272       0.0000000000000000e+00
213 273       0.0000000000000000e+00
213 274       0.0000000000000000e+00
213 275       0.0000000000000000e+00
213 276       0.0000000000000000e+00
213 286       0.0000000000000000e+00
213 287       0.0000000000000000e+00
213 288       0.0000000000000000e+00
213 289       0.0000000000000000e+00
213 290       0.0000000000000000e+00
213 291       0.0000000000000000e+00
213 376       0.0000000000000000e+00
213 377       0.0000000000000000e+00
213 378       0.0000000000000000e+00
213 379       0.0000000000000000e+00
213 380       0.0000000000000000e+00
213 381       0.0000000000000000e+00
213 385       0.0000000000000000e+00
213 386       0.0000000000000000e+00
213 387       0.0000000000000000e+00
213 388       0.0000000000000000e+00
213 389       0.0000000000000000e+00
213 390       0.0000000000000000e+00
213 403       0.0000000000000000e+00
213 404       0.0000000000000000e+00
213 405       0.0000000000000000e+00
213 406       0.0000000000000000e+00
213 407       0.0000000000000000e+00
213 408       0.0000000000000000e+00
213 412       0.0000000000000000e+00
213 413       0.0000000000000000e+00
213 414       0.0000000000000000e+00
213 415       0.0000000000000000e+00
213 416       0.0000000000000000e+00
213 417       0.0000000000000000e+00
213 430       0.0000000000000000e+00
213 431       0.0000000000000000e+00
213 432       0.0000000000000000e+00
213 433       0.0000000000000000e+00
213 434       0.0000000000000000e+00
213 435       0.0000000000000000e+00
213 439       0.0000000000000000e+00
213 440       0.0000000000000000e+00
213 441       0.0000000000000000e+00
213 442       0.0000000000000000e+00
213 443       0.0000000000000000e+00
213 444       0.0000000000000000e+00
214 214       0.0000000000000000e+00
214 136       0.0000000000000000e+00
214 137       0.0000000000000000e+00
214 138       0.0000000000000000e+00
214 139       0.0000000000000000e+00
214 140       0.0000000000000000e+00
214 141       0.0000000000000000e+00
214 142       0.0000000000000000e+00
214 143       0.0000000000000000e+00
214 144       0.0000000000000000e+00
214 151       0.0000000000000000e+00
214 152       0.0000000000000000e+00
214 153       0.0000000000000000e+00
214 154       0.0000000000000000e+00
214 155       0.0000000000000000e+00
214 156       0.0000000000000000e+00
214 157       0.0000000000000000e+00
214 158       0.0000000000000000e+00
214 159       0.0000000000000000e+00
214 166       0.0000000000000000e+00
214 167       0.0000000000000000e+00
214 168       0.0000000000000000e+00
214 169       0.0000000000000000e+00
214 170       0.0000000000000000e+00
214 171       0.0000000000000000e+00
214 172       0.0000000000000000e+00
214 173       0.0000000000000000e+00
214 174       0.0000000000000000e+00
214 196       0.0000000000000000e+00
214 197       0.0000000000000000e+00
214 198       0.0000000000000000e+00
214 199       0.0000000000000000e+00
214 200       0.0000000000000000e+00
214 201       0.0000000000000000e+00
214 202       0.0000000000000000e+00
214 203       0.0000000000000000e+00
214 204       0.0000000000000000e+00
214 211       0.0000000000000000e+00
214 212       0.0000000000000000e+00
214 213       0.0000000000000000e+00
214 215       0.0000000000000000e+00
214 216       0.0000000000000000e+00
214 217       0.0000000000000000e+00
214 218       0.0000000000000000e+00
214 219       0.0000000000000000e+00
214 226       0.0000000000000000e+00
214 227       0.0000000000000000e+00
214 228       0.0000000000000000e+00
214 229       0.0000000000000000e+00
214 230       0.0000000000000000e+00
214 231       0.0000000000000000e+00
214 232       0.0000000000000000e+00
214 233       0.0000000000000000e+00
214 234       0.0000000000000000e+00
214 256       0.0000000000000000e+00
214 257       0.0000000000000000e+00
214 258       0.0000000000000000e+00
214 259       0.0000000000000000e+00
214 260       0.0000000000000000e+00
214 261       0.0000000000000000e+00
214 262       0.0000000000000000e+00
214 263       0.0000000000000000e+00
214 264       0.0000000000000000e+00
214 271       0.0000000000000000e+00
214 272       0.0000000000000000e+00
214 273       0.0000000000000000e+00
214 274       0.0000000000000000e+00
214 275       0.0000000000000000e+00
214 276       0.0000000000000000e+00
214 277       0.0000000000000000e+00
214 278       0.0000000000000000e+00
214 279       0.0000000000000000e+00
214 286       0.0000000000000000e+00
214 287       0.0000000000000000e+00
214 288       0.0000000000000000e+00
214 289       0.0000000000000000e+00
214 290       0.0000000000000000e+00
214 291       0.0000000000000000e+00
214 292       0.0000000000000000e+00
214 293       0.0000000000000000e+00
214 294       0.0000000000000000e+00
214 403       0.0000000000000000e+00
214 404       0.0000000000000000e+00
214 405       0.0000000000000000e+00
214 406       0.0000000000000000e+00
214 407       0.0000000000000000e+00
214 408       0.0000000000000000e+00
214 412       0.0000000000000000e+00
214 413       0.0000000000000000e+00
214 414       0.0000000000000000e+00
214 415       0.0000000000000000e+00
214 416       0.0000000000000000e+00
214 417       0.0000000000000000e+00
215 215       0.0000000000000000e+00
215 136       0.0000000000000000e+00
215 137       0.0000000000000000e+00
215 138       0.0000000000000000e+00
215 139       0.0000000000000000e+00
215 140       0.0000000000000000e+00
215 141       0.0000000000000000e+00
215 142       0.0000000000000000e+00
215 143       0.0000000000000000e+00
215 144       0.0000000000000000e+00
215 151       0.0000000000000000e+00
215 152       0.0000000000000000e+00
215 153       0.0000000000000000e+00
215 154       0.0000000000000000e+00
215 155       0.0000000000000000e+00
215 156       0.0000000000000000e+00
215 157       0.0000000000000000e+00
215 158       0.0000000000000000e+00
215 159       0.0000000000000000e+00
215 166       0.0000000000000000e+00
215 167       0.0000000000000000e+00
215 168       0.0000000000000000e+00
215 169       0.0000000000000000e+00
215 170       0.0000000000000000e+00
215 171       0.0000000000000000e+00
215 172       0.0000000000000000e+00
215 173       0.0000000000000000e+00
215 174       0.0000000000000000e+00
215 196       0.0000000000000000e+00
215 197       0.0000000000000000e+00
215 198       0.0000000000000000e+00
215 199       0.0000000000000000e+00
215 200       0.0000000000000000e+00
215 201       0.0000000000000000e+00
215 202       0.0000000000000000e+00
215 203       0.0000000000000000e+00
215 204       0.0000000000000000e+00
215 211       0.0000000000000000e+00
215 212       0.0000000000000000e+00
215 213       0.0000000000000000e+00
215 214       0.0000000000000000e+00
215 216       0.0000000000000000e+00
215 217       0.0000000000000000e+00
215 218       0.0000000000000000e+00
215 219       0.0000000000000000e+00
215 226       0.0000000000000000e+00
215 227       0.0000000000000000e+00
215 228       0.0000000000000000e+00
215 229       0.0000000000000000e+00
215 230       0.0000000000000000e+00
215 231       0.0000000000000000e+00
215 232       0.0000000000000000e+00
215 233       0.0000000000000000e+00
215 234       0.0000000000000000e+00
215 256       0.0000000000000000e+00
215 257       0.0000000000000000e+00
215 258       0.0000000000000000e+00
215 259       0.0000000000000000e+00
215 260       0.0000000000000000e+00
215 261       0.0000000000000000e+00
215 262       0.0000000000000000e+00
215 263       0.0000000000000000e+00
215 264       0.0000000000000000e+00
215 271       0.0000000000000000e+00
215 272       0.0000000000000000e+00
215 273       0.0000000000000000e+00
215 274       0.0000000000000000e+00
215 275       0.0000000000000000e+00
215 276       0.0000000000000000e+00
215 277       0.0000000000000000e+00
215 278       0.0000000000000000e+00
215 279       0.0000000000000000e+00
215 286       0.0000000000000000e+00
215 287       0.0000000000000000e+00
215 288       0.0000000000000000e+00
215 289       0.0000000000000000e+00
215 290       0.0000000000000000e+00
215 291       0.0000000000000000e+00
215 292       0.0000000000000000e+00
215 293       0.0000000000000000e+00
215 294       0.0000000000000000e+00
215 403       0.0000000000000000e+00
215 404       0.0000000000000000e+00
215 405       0.0000000000000000e+00
215 406       0.0000000000000000e+00
215 407       0.0000000000000000e+00
215 408       0.0000000000000000e+00
215 412       0.0000000000000000e+00
215 413       0.0000000000000000e+00
215 414       0.0000000000000000e+00
215 415       0.0000000000000000e+00
215 416       0.0000000000000000e+00
215 417       0.0000000000000000e+00
216 216       0.0000000000000000e+00
216 136       0.0000000000000000e+00
216 137       0.0000000000000000e+00
216 138       0.0000000000000000e+00
216 139       0.0000000000000000e+00
216 140       0.0000000000000000e+00
216 141       0.0000000000000000e+00
216 142       0.0000000000000000e+00
216 143       0.0000000000000000e+00
216 144       0.0000000000000000e+00
216 151       0.0000000000000000e+00
216 152       0.0000000000000000e+00
216 153       0.0000000000000000e+00
216 154       0.0000000000000000e+00
216 155       0.0000000000000000e+00
216 156       0.0000000000000000e+00
216 157       0.0000000000000000e+00
216 158       0.0000000000000000e+00
216 159       0.0000000000000000e+00
216 166       0.0000000000000000e+00
216 167       0.0000000000000000e+00
216 168       0.0000000000000000e+00
216 169       0.0000000000000000e+00
216 170       0.0000000000000000e+00
216 171       0.0000000000000000e+00
216 172       0.0000000000000000e+00
216 173       0.0000000000000000e+00
216 174       0.0000000000000000e+00
216 196       0.0000000000000000e+00
216 197       0.0000000000000000e+00
216 198       0.0000000000000000e+00
216 199       0.0000000000000000e+00
216 200       0.0000000000000000e+00
216 201       0.0000000000000000e+00
216 202       0.0000000000000000e+00
216 203       0.0000000000000000e+00
216 204       0.0000000000000000e+00
216 211       0.0000000000000000e+00
216 212       0.0000000000000000e+00
216 213       0.0000000000000000e+00
216 214       0.0000000000000000e+00
216 215       0.0000000000000000e+00
216 217       0.0000000000000000e+00
216 218       0.0000000000000000e+00
216 219       0.0000000000000000e+00
216 226       0.0000000000000000e+00
216 227       0.0000000000000000e+00
216 228       0.0000000000000000e+00
216 229       0.0000000000000000e+00
216 230       0.0000000000000000e+00
216 231       0.0000000000000000e+00
216 232       0.0000000000000000e+00
216 233       0.0000000000000000e+00
216 234       0.0000000000000000e+00
216 256       0.0000000000000000e+00
216 257       0.0000000000000000e+00
216 258       0.0000000000000000e+00
216 259       0.0000000000000000e+00
216 260       0.0000000000000000e+00
216 261       0.0000000000000000e+00
216 262       0.0000000000000000e+00
216 263       0.0000000000000000e+00
216 264       0.0000000000000000e+00
216 271       0.0000000000000000e+00
216 272       0.0000000000000000e+00
216 273       0.0000000000000000e+00
216 274       0.0000000000000000e+00
216 275       0.0000000000000000e+00
216 276       0.0000000000000000e+00
216 277       0.0000000000000000e+00
216 278       0.0000000000000000e+00
216 279       0.0000000000000000e+00
216 286       0.0000000000000000e+00
216 287       0.0000000000000000e+00
216 288       0.0000000000000000e+00
216 289       0.0000000000000000e+00
216 290       0.0000000000000000e+00
216 291       0.0000000000000000e+00
216 292       0.0000000000000000e+00
216 293       0.0000000000000000e+00
216 294       0.0000000000000000e+00
216 403       0.0000000000000000e+00
216 404       0.0000000000000000e+00
216 405       0.0000000000000000e+00
216 406       0.0000000000000000e+00
216 407       0.0000000000000000e+00
216 408       0.0000000000000000e+00
216 412       0.0000000000000000e+00
216 413       0.0000000000000000e+00
216 414       0.0000000000000000e+00
216 415       0.0000000000000000e+00
216 416       0.0000000000000000e+00
216 417       0.0000000000000000e+00
217 217       0.0000000000000000e+00
217 139       0.0000000000000000e+00
217 140       0.0000000000000000e+00
217 141       0.0000000000000000e+00
217 142       0.0000000000000000e+00
217 143       0.0000000000000000e+00
217 144       0.0000000000000000e+00
217 145       0.0000000000000000e+00
217 146       0.0000000000000000e+00
217 147       0.0000000000000000e+00
217 154       0.0000000000000000e+00
217 155       0.0000000000000000e+00
217 156       0.0000000000000000e+00
217 157       0.0000000000000000e+00
217 158       0.0000000000000000e+00
217 159       0.0000000000000000e+00
217 160       0.0000000000000000e+00
217 161       0.0000000000000000e+00
217 162       0.0000000000000000e+00
217 169       0.0000000000000000e+00
217 170       0.0000000000000000e+00
217 171       0.0000000000000000e+00
217 172       0.0000000000000000e+00
217 173       0.0000000000000000e+00
217 174       0.0000000000000000e+00
217 175       0.0000000000000000e+00
217 176       0.0000000000000000e+00
217 177       0.0000000000000000e+00
217 199       0.0000000000000000e+00
217 200       0.0000000000000000e+00
217 201       0.0000000000000000e+00
217 202       0.0000000000000000e+00
217 203       0.0000000000000000e+00
217 204       0.0000000000000000e+00
217 205       0.0000000000000000e+00
217 206       0.0000000000000000e+00
217 207       0.0000000000000000e+00
217 214       0.0000000000000000e+00
217 215       0.0000000000000000e+00
217 216       0.0000000000000000e+00
217 218       0.0000000000000000e+00
217 219       0.0000000000000000e+00
217 220       0.0000000000000000e+00
217 221       0.0000000000000000e+00
217 222       0.0000000000000000e+00
217 229       0.0000000000000000e+00
217 230       0.0000000000000000e+00
217 231       0.0000000000000000e+00
217 232       0.0000000000000000e+00
217 233       0.0000000000000000e+00
217 234       0.0000000000000000e+00
217 235       0.0000000000000000e+00
217 236       0.0000000000000000e+00
217 237       0.0000000000000000e+00
217 259       0.0000000000000000e+00
217 260       0.0000000000000000e+00
217 261       0.0000000000000000e+00
217 262       0.0000000000000000e+00
217 263       0.0000000000000000e+00
217 264       0.0000000000000000e+00
217 265       0.0000000000000000e+00
217 266       0.0000000000000000e+00
217 267       0.0000000000000000e+00
217 274       0.0000000000000000e+00
217 275       0.0000000000000000e+00
217 276       0.0000000000000000e+00
217 277       0.0000000000000000e+00
217 278       0.0000000000000000e+00
217 279       0.0000000000000000e+00
217 280       0.0000000000000000e+00
217 281       0.0000000000000000e+00
217 282       0.0000000000000000e+00
217 289       0.0000000000000000e+00
217 290       0.0000000000000000e+00
217 291       0.0000000000000000e+00
217 292       0.0000000000000000e+00
217 293       0.0000000000000000e+00
217 294       0.0000000000000000e+00
217 295       0.0000000000000000e+00
217 296       0.0000000000000000e+00
217 297       0.0000000000000000e+00
218 218       0.0000000000000000e+00
218 139       0.0000000000000000e+00
218 140       0.0000000000000000e+00
218 141       0.0000000000000000e+00
218 142       0.0000000000000000e+00
218 143       0.0000000000000000e+00
218 144       0.0000000000000000e+00
218 145       0.0000000000000000e+00
218 146       0.0000000000000000e+00
218 147       0.0000000000000000e+00
218 154       0.0000000000000000e+00
218 155       0.0000000000000000e+00
218 156       0.0000000000000000e+00
218 157       0.0000000000000000e+00
218 158       0.0000000000000000e+00
218 159       0.0000000000000000e+00
218 160       0.0000000000000000e+00
218 161       0.0000000000000000e+00
218 162       0.0000000000000000e+00
218 169       0.0000000000000000e+00
218 170       0.0000000000000000e+00
218 171       0.0000000000000000e+00
218 172       0.0000000000000000e+00
218 173       0.0000000000000000e+00
218 174       0.0000000000000000e+00
218 175       0.0000000000000000e+00
218 176       0.0000000000000000e+00
218 177       0.0000000000000000e+00
218 199       0.0000000000000000e+00
218 200       0.0000000000000000e+00
218 201       0.0000000000000000e+00
218 202       0.0000000000000000e+00
218 203       0.0000000000000000e+00
218 204       0.0000000000000000e+00
218 205       0.0000000000000000e+00
218 206       0.0000000000000000e+00
218 207       0.0000000000000000e+00
218 214       0.0000000000000000e+00
218 215       0.0000000000000000e+00
218 216       0.0000000000000000e+00
218 217       0.0000000000000000e+00
218 219       0.0000000000000000e+00
218 220       0.0000000000000000e+00
218 221       0.0000000000000000e+00
218 222       0.0000000000000000e+00
218 229       0.0000000000000000e+00
218 230       0.0000000000000000e+00
218 231       0.0000000000000000e+00
218 232       0.0000000000000000e+00
218 233       0.0000000000000000e+00
218 234       0.0000000000000000e+00
218 235       0.0000000000000000e+00
218 236       0.0000000000000000e+00
218 237       0.0000000000000000e+00
218 259       0.0000000000000000e+00
218 260       0.0000000000000000e+00
218 261       0.0000000000000000e+00
218 262       0.0000000000000000e+00
218 263       0.0000000000000000e+00
218 264       0.0000000000000000e+00
218 265       0.0000000000000000e+00
218 266       0.0000000000000000e+00
218 267       0.0000000000000000e+00
218 274       0.0000000000000000e+00
218 275       0.0000000000000000e+00
218 276       0.0000000000000000e+00
218 277       0.0000000000000000e+00
218 278       0.0000000000000000e+00
218 279       0.0000000000000000e+00
218 280       0.0000000000000000e+00
218 281       0.0000000000000000e+00
218 282       0.0000000000000000e+00
218 289       0.0000000000000000e+00
218 290       0.0000000000000000e+00
218 291       0.0000000000000000e+00
218 292       0.0000000000000000e+00
218 293       0.0000000000000000e+00
218 294       0.0000000000000000e+00
218 295       0.0000000000000000e+00
218 296       0.0000000000000000e+00
218 297       0.0000000000000000e+00
219 219       0.0000000000000000e+00
219 139       0.0000000000000000e+00
219 140       0.0000000000000000e+00
219 141       0.0000000000000000e+00
219 142       0.0000000000000000e+00
219 143       0.0000000000000000e+00
219 144       0.0000000000000000e+00
219 145       0.0000000000000000e+00
219 146       0.0000000000000000e+00
219 147       0.0000000000000000e+00
219 154       0.0000000000000000e+00
219 155       0.0000000000000000e+00
219 156       0.0000000000000000e+00
219 157       0.0000000000000000e+00
219 158       0.0000000000000000e+00
219 159       0.0000000000000000e+00
219 160       0.0000000000000000e+00
219 161       0.0000000000000000e+00
219 162       0.0000000000000000e+00
219 169       0.0000000000000000e+00
219 170       0.0000000000000000e+00
219 171       0.0000000000000000e+00
219 172       0.0000000000000000e+00
219 173       0.0000000000000000e+00
219 174       0.0000000000000000e+00
219 175       0.0000000000000000e+00
219 176       0.0000000000000000e+00
219 177       0.0000000000000000e+00
219 199       0.0000000000000000e+00
219 200       0.0000000000000000e+00
219 201       0.0000000000000000e+00
219 202       0.0000000000000000e+00
219 203       0.0000000000000000e+00
219 204       0.0000000000000000e+00
219 205       0.0000000000000000e+00
219 206       0.0000000000000000e+00
219 207       0.0000000000000000e+00
219 214       0.0000000000000000e+00
219 215       0.0000000000000000e+00
219 216       0.0000000000000000e+00
219 217       0.0000000000000000e+00
219 218       0.0000000000000000e+00
219 220       0.0000000000000000e+00
219 221       0.0000000000000000e+00
219 222       0.0000000000000000e+00
219 229       0.0000000000000000e+00
219 230       0.0000000000000000e+00
219 231       0.0000000000000000e+00
219 232       0.0000000000000000e+00
219 233       0.0000000000000000e+00
219 234       0.0000000000000000e+00
219 235       0.0000000000000000e+00
219 236       0.0000000000000000e+00
219 237       0.0000000000000000e+00
219 259       0.0000000000000000e+00
219 260       0.0000000000000000e+00
219 261       0.0000000000000000e+00
219 262       0.0000000000000000e+00
219 263       0.0000000000000000e+00
219 264       0.0000000000000000e+00
219 265       0.0000000000000000e+00
219 266       0.0000000000000000e+00
219 267       0.0000000000000000e+00
219 274       0.0000000000000000e+00
219 275       0.0000000000000000e+00
219 276       0.0000000000000000e+00
219 277       0.0000000000000000e+00
219 278       0.0000000000000000e+00
219 279       0.0000000000000000e+00
219 280       0.0000000000000000e+00
219 281       0.0000000000000000e+00
219 282       0.0000000000000000e+00
219 289       0.0000000000000000e+00
219 290       0.0000000000000000e+00
219 291       0.0000000000000000e+00
219 292       0.0000000000000000e+00
219 293       0.0000000000000000e+00
219 294       0.0000000000000000e+00
219 295       0.0000000000000000e+00
219 296       0.0000000000000000e+00
219 297       0.0000000000000000e+00
220 220       0.0000000000000000e+00
220 142       0.0000000000000000e+00
220 143       0.0000000000000000e+00
220 144       0.0000000000000000e+00
220 145       0.0000000000000000e+00
220 146       0.0000000000000000e+00
220 147       0.0000000000000000e+00
220 148       0.0000000000000000e+00
220 149       0.0000000000000000e+00
220 150       0.0000000000000000e+00
220 157       0.0000000000000000e+00
220 158       0.0000000000000000e+00
220 159       0.0000000000000000e+00
220 160       0.0000000000000000e+00
220 161       0.0000000000000000e+00
220 162       0.0000000000000000e+00
220 163       0.0000000000000000e+00
220 164       0.0000000000000000e+00
220 165       0.0000000000000000e+00
220 172       0.0000000000000000e+00
220 173       0.0000000000000000e+00
220 174       0.0000000000000000e+00
220 175       0.0000000000000000e+00
220 176       0.0000000000000000e+00
220 177       0.0000000000000000e+00
220 178       0.0000000000000000e+00
220 179       0.0000000000000000e+00
220 180       0.0000000000000000e+00
220 202       0.0000000000000000e+00
220 203       0.0000000000000000e+00
220 204       0.0000000000000000e+00
220 205       0.0000000000000000e+00
220 206       0.0000000000000000e+00
220 207       0.0000000000000000e+00
220 208       0.0000000000000000e+00
220 209       0.0000000000000000e+00
220 210       0.0000000000000000e+00
220 217       0.0000000000000000e+00
220 218       0.0000000000000000e+00
220 219       0.0000000000000000e+00
220 221       0.0000000000000000e+00
220 222       0.0000000000000000e+00
220 223       0.0000000000000000e+00
220 224       0.0000000000000000e+00
220 225       0.0000000000000000e+00
220 232       0.0000000000000000e+00
220 233       0.0000000000000000e+00
220 234       0.0000000000000000e+00
220 235       0.0000000000000000e+00
220 236       0.0000000000000000e+00
220 237       0.0000000000000000e+00
220 238       0.0000000000000000e+00
220 239       0.0000000000000000e+00
220 240       0.0000000000000000e+00
220 262       0.0000000000000000e+00
220 263       0.0000000000000000e+00
220 264       0.0000000000000000e+00
220 265       0.0000000000000000e+00
220 266       0.0000000000000000e+00
220 267       0.0000000000000000e+00
220 268       0.0000000000000000e+00
220 269       0.0000000000000000e+00
220 270       0.0000000000000000e+00
220 277       0.0000000000000000e+00
220 278       0.0000000000000000e+00
220 279       0.0000000000000000e+00
220 280       0.0000000000000000e+00
220 281       0.0000000000000000e+00
220 282       0.0000000000000000e+00
220 283       0.0000000000000000e+00
220 284       0.0000000000000000e+00
220 285       0.0000000000000000e+00
220 292       0.0000000000000000e+00
220 293       0.0000000000000000e+00
220 294       0.0000000000000000e+00
220 295       0.0000000000000000e+00
220 296       0.0000000000000000e+00
220 297       0.0000000000000000e+00
220 298       0.0000000000000000e+00
220 299       0.0000000000000000e+00
220 300       0.0000000000000000e+00
221 221       0.0000000000000000e+00
221 142       0.0000000000000000e+00
221 143       0.0000000000000000e+00
221 144       0.0000000000000000e+00
221 145       0.0000000000000000e+00
221 146       0.0000000000000000e+00
221 147       0.0000000000000000e+00
221 148       0.0000000000000000e+00
221 149       0.0000000000000000e+00
221 150       0.0000000000000000e+00
221 157       0.0000000000000000e+00
221 158       0.0000000000000000e+00
221 159       0.0000000000000000e+00
221 160       0.0000000000000000e+00
221 161       0.0000000000000000e+00
221 162       0.0000000000000000e+00
221 163       0.0000000000000000e+00
221 164       0.0000000000000000e+00
221 165       0.0000000000000000e+00
221 172       0.0000000000000000e+00
221 173       0.0000000000000000e+00
221 174       0.0000000000000000e+00
221 175       0.0000000000000000e+00
221 176       0.0000000000000000e+00
221 177       0.0000000000000000e+00
221 178       0.0000000000000000e+00
221 179       0.0000000000000000e+00
221 180       0.0000000000000000e+00
221 202       0.0000000000000000e+00
221 203       0.0000000000000000e+00
221 204       0.0000000000000000e+00
221 205       0.0000000000000000e+00
221 206       0.0000000000000000e+00
221 207       0.0000000000000000e+00
221 208       0.0000000000000000e+00
221 209       0.0000000000000000e+00
221 210       0.0000000000000000e+00
221 217       0.0000000000000000e+00
221 218       0.0000000000000000e+00
221 219       0.0000000000000000e+00
221 220       0.0000000000000000e+00
221 222       0.0000000000000000e+00
221 223       0.0000000000000000e+00
221 224       0.0000000000000000e+00
221 225       0.0000000000000000e+00
221 232       0.0000000000000000e+00
221 233       0.0000000000000000e+00
221 234       0.0000000000000000e+00
221 235       0.0000000000000000e+00
221 236       0.0000000000000000e+00
221 237       0.0000000000000000e+00
221 238       0.0000000000000000e+00
221 239       0.0000000000000000e+00
221 240       0.0000000000000000e+00
221 262       0.0000000000000000e+00
221 263       0.0000000000000000e+00
221 264       0.0000000000000000e+00
221 265       0.0000000000000000e+00
221 266       0.0000000000000000e+00
221 267       0.0000000000000000e+00
221 268       0.0000000000000000e+00
221 269       0.0000000000000000e+00
221 270       0.0000000000000000e+00
221 277       0.0000000000000000e+00
221 278       0.0000000000000000e+00
221 279       0.0000000000000000e+00
221 280       0.0000000000000000e+00
221 281       0.0000000000000000e+00
221 282       0.0000000000000000e+00
221 283       0.0000000000000000e+00
221 284       0.0000000000000000e+00
221 285       0.0000000000000000e+00
221 292       0.0000000000000000e+00
221 293       0.0000000000000000e+00
221 294       0.0000000000000000e+00
221 295       0.0000000000000000e+00
221 296       0.0000000000000000e+00
221 297       0.0000000000000000e+00
221 298       0.0000000000000000e+00
221 299       0.0000000000000000e+00
221 300       0.0000000000000000e+00
222 222       0.0000000000000000e+00
222 142       0.0000000000000000e+00
222 143       0.0000000000000000e+00
222 144       0.0000000000000000e+00
222 145       0.0000000000000000e+00
222 146       0.0000000000000000e+00
222 147       0.0000000000000000e+00
222 148       0.0000000000000000e+00
222 149       0.0000000000000000e+00
222 150       0.0000000000000000e+00
222 157       0.0000000000000000e+00
222 158       0.0000000000000000e+00
222 159       0.0000000000000000e+00
222 160       0.0000000000000000e+00
222 161       0.0000000000000000e+00
222 162       0.0000000000000000e+00
222 163       0.0000000000000000e+00
222 164       0.0000000000000000e+00
222 165       0.0000000000000000e+00
222 172       0.0000000000000000e+00
222 173       0.0000000000000000e+00
222 174       0.0000000000000000e+00
222 175       0.0000000000000000e+00
222 176       0.0000000000000000e+00
222 177       0.0000000000000000e+00
222 178       0.0000000000000000e+00
222 179       0.0000000000000000e+00
222 180       0.0000000000000000e+00
222 202       0.0000000000000000e+00
222 203       0.0000000000000000e+00
222 204       0.0000000000000000e+00
222 205       0.0000000000000000e+00
222 206       0.0000000000000000e+00
222 207       0.0000000000000000e+00
222 208       0.0000000000000000e+00
222 209       0.0000000000000000e+00
222 210       0.0000000000000000e+00
222 217       0.0000000000000000e+00
222 218       0.0000000000000000e+00
222 219       0.0000000000000000e+00
222 220       0.0000000000000000e+00
222 221       0.0000000000000000e+00
222 223       0.0000000000000000e+00
222 224       0.0000000000000000e+00
222 225       0.0000000000000000e+00
222 232       0.0000000000000000e+00
222 233       0.0000000000000000e+00
222 234       0.0000000000000000e+00
222 235       0.0000000000000000e+00
222 236       0.0000000000000000e+00
222 237       0.0000000000000000e+00
222 238       0.0000000000000000e+00
222 239       0.0000000000000000e+00
222 240       0.0000000000000000e+00
222 262       0.0000000000000000e+00
222 263       0.0000000000000000e+00
222 264       0.0000000000000000e+00
222 265       0.0000000000000000e+00
222 266       0.0000000000000000e+00
222 267       0.0000000000000000e+00
222 268       0.0000000000000000e+00
222 269       0.0000000000000000e+00
222 270       0.0000000000000000e+00
222 277       0.0000000000000000e+00
222 278       0.0000000000000000e+00
222 279       0.0000000000000000e+00
222 280       0.0000000000000000e+00
222 281       0.0000000000000000e+00
222 282       0.0000000000000000e+00
222 283       0.0000000000000000e+00
222 284       0.0000000000000000e+00
222 285       0.0000000000000000e+00
222 292       0.0000000000000000e+00
222 293       0.0000000000000000e+00
222 294       0.0000000000000000e+00
222 295       0.0000000000000000e+00
222 296       0.0000000000000000e+00
222 297       0.0000000000000000e+00
222 298       0.0000000000000000e+00
222 299       0.0000000000000000e+00
222 300       0.0000000000000000e+00
223 223       0.0000000000000000e+00
223 145       0.0000000000000000e+00
223 146       0.0000000000000000e+00
223 147       0.0000000000000000e+00
223 148       0.0000000000000000e+00
223 149       0.0000000000000000e+00
223 150       0.0000000000000000e+00
223 160       0.0000000000000000e+00
223 161       0.0000000000000000e+00
223 162       0.0000000000000000e+00
223 163       0.0000000000000000e+00
223 164       0.0000000000000000e+00
223 165       0.0000000000000000e+00
223 175       0.0000000000000000e+00
223 176       0.0000000000000000e+00
223 177       0.0000000000000000e+00
223 178       0.0000000000000000e+00
223 179       0.0000000000000000e+00
223 180       0.0000000000000000e+00
223 205       0.0000000000000000e+00
223 206       0.0000000000000000e+00
223 207       0.0000000000000000e+00
223 208       0.0000000000000000e+00
223 209       0.0000000000000000e+00
223 210       0.0000000000000000e+00
223 220       0.0000000000000000e+00
223 221       0.0000000000000000e+00
223 222       0.0000000000000000e+00
223 224       0.0000000000000000e+00
223 225       0.0000000000000000e+00
223 235       0.0000000000000000e+00
223 236       0.0000000000000000e+00
223 237       0.0000000000000000e+00
223 238       0.0000000000000000e+00
223 239       0.0000000000000000e+00
223 240       0.0000000000000000e+00
223 265       0.0000000000000000e+00
223 266       0.0000000000000000e+00
223 267       0.0000000000000000e+00
223 268       0.0000000000000000e+00
223 269       0.0000000000000000e+00
223 270       0.0000000000000000e+00
223 280       0.0000000000000000e+00
223 281       0.0000000000000000e+00
223 282       0.0000000000000000e+00
223 283       0.0000000000000000e+00
223 284       0.0000000000000000e+00
223 285       0.0000000000000000e+00
223 295       0.0000000000000000e+00
223 296       0.0000000000000000e+00
223 297       0.0000000000000000e+00
223 298       0.0000000000000000e+00
223 299       0.0000000000000000e+00
223 300       0.0000000000000000e+00
224 224       0.0000000000000000e+00
224 145       0.0000000000000000e+00
224 146       0.0000000000000000e+00
224 147       0.0000000000000000e+00
224 148       0.0000000000000000e+00
224 149       0.0000000000000000e+00
224 150       0.0000000000000000e+00
224 160       0.0000000000000000e+00
224 161       0.0000000000000000e+00
224 162       0.0000000000000000e+00
224 163       0.0000000000000000e+00
224 164       0.0000000000000000e+00
224 165       0.0000000000000000e+00
224 175       0.0000000000000000e+00
224 176       0.0000000000000000e+00
224 177       0.0000000000000000e+00
224 178       0.0000000000000000e+00
224 179       0.0000000000000000e+00
224 180       0.0000000000000000e+00
224 205       0.0000000000000000e+00
224 206       0.0000000000000000e+00
224 207       0.0000000000000000e+00
224 208       0.0000000000000000e+00
224 209       0.0000000000000000e+00
224 210       0.0000000000000000e+00
224 220       0.0000000000000000e+00
224 221       0.0000000000000000e+00
224 222       0.0000000000000000e+00
224 223       0.0000000000000000e+00
224 225       0.0000000000000000e+00
224 235       0.0000000000000000e+00
224 236       0.0000000000000000e+00
224 237       0.0000000000000000e+00
224 238       0.0000000000000000e+00
224 239       0.0000000000000000e+00
224 240       0.0000000000000000e+00
224 265       0.0000000000000000e+00
224 266       0.0000000000000000e+00
224 267       0.0000000000000000e+00
224 268       0.0000000000000000e+00
224 269       0.0000000000000000e+00
224 270       0.0000000000000000e+00
224 280       0.0000000000000000e+00
224 281       0.0000000000000000e+00
224 282       0.0000000000000000e+00
224 283       0.0000000000000000e+00
224 284       0.0000000000000000e+00
224 285       0.0000000000000000e+00
224 295       0.0000000000000000e+00
224 296       0.0000000000000000e+00
224 297       0.0000000000000000e+00
224 298       0.0000000000000000e+00
224 299       0.0000000000000000e+00
224 300       0.0000000000000000e+00
225 225       0.0000000000000000e+00
225 145       0.0000000000000000e+00
225 146       0.0000000000000000e+00
225 147       0.0000000000000000e+00
225 148       0.0000000000000000e+00
225 149       0.0000000000000000e+00
225 150       0.0000000000000000e+00
225 160       0.0000000000000000e+00
225 161       0.0000000000000000e+00
225 162       0.0000000000000000e+00
225 163       0.0000000000000000e+00
225 164       0.0000000000000000e+00
225 165       0.0000000000000000e+00
225 175       0.0000000000000000e+00
225 176       0.0000000000000000e+00
225 177       0.0000000000000000e+00
225 178       0.0000000000000000e+00
225 179       0.0000000000000000e+00
225 180       0.0000000000000000e+00
225 205       0.0000000000000000e+00
225 206       0.0000000000000000e+00
225 207       0.0000000000000000e+00
225 208       0.0000000000000000e+00
225 209       0.0000000000000000e+00
225 210       0.0000000000000000e+00
225 220       0.0000000000000000e+00
225 221       0.0000000000000000e+00
225 222       0.0000000000000000e+00
225 223       0.0000000000000000e+00
225 224       0.0000000000000000e+00
225 235       0.0000000000000000e+00
225 236       0.0000000000000000e+00
225 237       0.0000000000000000e+00
225 238       0.0000000000000000e+00
225 239       0.0000000000000000e+00
225 240       0.0000000000000000e+00
225 265       0.0000000000000000e+00
225 266       0.0000000000000000e+00
225 267       0.0000000000000000e+00
225 268       0.0000000000000000e+00
225 269       0.0000000000000000e+00
225 270       0.0000000000000000e+00
225 280       0.0000000000000000e+00
225 281       0.0000000000000000e+00
225 282       0.0000000000000000e+00
225 283       0.0000000000000000e+00
225 284       0.0000000000000000e+00
225 285       0.0000000000000000e+00
225 295       0.0000000000000000e+00
225 296       0.0000000000000000e+00
225 297       0.0000000000000000e+00
225 298       0.0000000000000000e+00
225 299       0.0000000000000000e+00
225 300       0.0000000000000000e+00
226 226       0.0000000000000000e+00
226 151       0.0000000000000000e+00
226 152       0.0000000000000000e+00
226 153       0.0000000000000000e+00
226 154       0.0000000000000000e+00
226 155       0.0000000000000000e+00
226 156       0.0000000000000000e+00
226 166       0.0000000000000000e+00
226 167       0.0000000000000000e+00
226 168       0.0000000000000000e+00
226 169       0.0000000000000000e+00
226 170       0.0000000000000000e+00
226 171       0.0000000000000000e+00
226 181       0.0000000000000000e+00
226 182       0.0000000000000000e+00
226 183       0.0000000000000000e+00
226 184       0.0000000000000000e+00
226 185       0.0000000000000000e+00
226 186       0.0000000000000000e+00
226 211       0.0000000000000000e+00
226 212       0.0000000000000000e+00
226 213       0.0000000000000000e+00
226 214       0.0000000000000000e+00
226 215       0.0000000000000000e+00
226 216       0.0000000000000000e+00
226 227       0.0000000000000000e+00
226 228       0.0000000000000000e+00
226 229       0.0000000000000000e+00
226 230       0.0000000000000000e+00
226 231       0.0000000000000000e+00
226 241       0.0000000000000000e+00
226 242       0.0000000000000000e+00
226 243       0.0000000000000000e+00
226 244       0.0000000000000000e+00
226 245       0.0000000000000000e+00
226 246       0.0000000000000000e+00
226 271       0.0000000000000000e+00
226 272       0.0000000000000000e+00
226 273       0.0000000000000000e+00
226 274       0.0000000000000000e+00
226 275       0.0000000000000000e+00
226 276       0.0000000000000000e+00
226 286       0.0000000000000000e+00
226 287       0.0000000000000000e+00
226 288       0.0000000000000000e+00
226 289       0.0000000000000000e+00
226 290       0.0000000000000000e+00
226 291       0.0000000000000000e+00
226 301       0.0000000000000000e+00
226 302       0.0000000000000000e+00
226 303       0.0000000000000000e+00
226 304       0.0000000000000000e+00
226 305       0.0000000000000000e+00
226 306       0.0000000000000000e+00
226 379       0.0000000000000000e+00
226 380       0.0000000000000000e+00
226 381       0.0000000000000000e+00
226 382       0.0000000000000000e+00
226 383       0.0000000000000000e+00
226 384       0.0000000000000000e+00
226 388       0.0000000000000000e+00
226 389       0.0000000000000000e+00
226 390       0.0000000000000000e+00
226 391       0.0000000000000000e+00
226 392       0.0000000000000000e+00
226 393       0.0000000000000000e+00
226 406       0.0000000000000000e+00
226 407       0.0000000000000000e+00
226 408       0.0000000000000000e+00
226 409       0.0000000000000000e+00
226 410       0.0000000000000000e+00
226 411       0.0000000000000000e+00
226 415       0.0000000000000000e+00
226 416       0.0000000000000000e+00
226 417       0.0000000000000000e+00
226 418       0.0000000000000000e+00
226 419       0.0000000000000000e+00
226 420       0.0000000000000000e+00
226 433       0.0000000000000000e+00
226 434       0.0000000000000000e+00
226 435       0.0000000000000000e+00
226 436       0.0000000000000000e+00
226 437       0.0000000000000000e+00
226 438       0.0000000000000000e+00
226 442       0.0000000000000000e+00
226 443       0.0000000000000000e+00
226 444       0.0000000000000000e+00
226 445       0.0000000000000000e+00
226 446       0.0000000000000000e+00
226 447       0.0000000000000000e+00
227 227       0.0000000000000000e+00
227 151       0.0000000000000000e+00
227 152       0.0000000000000000e+00
227 153       0.0000000000000000e+00
227 154       0.0000000000000000e+00
227 155       0.0000000000000000e+00
227 156       0.0000000000000000e+00
227 166       0.0000000000000000e+00
227 167       0.0000000000000000e+00
227 168       0.0000000000000000e+00
227 169       0.0000000000000000e+00
227 170       0.0000000000000000e+00
227 171       0.0000000000000000e+00
227 181       0.0000000000000000e+00
227 182       0.0000000000000000e+00
227 183       0.0000000000000000e+00
227 184       0.0000000000000000e+00
227 185       0.0000000000000000e+00
227 186       0.0000000000000000e+00
227 211       0.0000000000000000e+00
227 212       0.0000000000000000e+00
227 213       0.0000000000000000e+00
227 214       0.0000000000000000e+00
227 215       0.0000000000000000e+00
227 216       0.0000000000000000e+00
227 226       0.0000000000000000e+00
227 228       0.0000000000000000e+00
227 229       0.0000000000000000e+00
227 230       0.0000000000000000e+00
227 231       0.0000000000000000e+00
227 241       0.0000000000000000e+00
227 242       0.0000000000000000e+00
227 243       0.0000000000000000e+00
227 244       0.0000000000000000e+00
227 245       0.0000000000000000e+00
227 246       0.0000000000000000e+00
227 271       0.0000000000000000e+00
227 272       0.0000000000000000e+00
227 273       0.0000000000000000e+00
227 274       0.0000000000000000e+00
227 275       0.0000000000000000e+00
227 276       0.0000000000000000e+00
227 286       0.0000000000000000e+00
227 287       0.0000000000000000e+00
227 288       0.0000000000000000e+00
227 289       0.0000000000000000e+00
227 290       0.0000000000000000e+00
227 291       0.0000000000000000e+00
227 301       0.0000000000000000e+00
227 302       0.0000000000000000e+00
227 303       0.0000000000000000e+00
227 304       0.0000000000000000e+00
227 305       0.0000000000000000e+00
227 306       0.0000000000000000e+00
227 379       0.0000000000000000e+00
227 380       0.0000000000000000e+00
227 381       0.0000000000000000e+00
227 382       0.0000000000000000e+00
227 383       0.0000000000000000e+00
227 384       0.0000000000000000e+00
227 388       0.0000000000000000e+00
227 389       0.0000000000000000e+00
227 390       0.0000000000000000e+00
227 391       0.0000000000000000e+00
227 392       0.0000000000000000e+00
227 393       0.0000000000000000e+00
227 406       0.0000000000000000e+00
227 407       0.0000000000000000e+00
227 408       0.0000000000000000e+00
227 409       0.0000000000000000e+00
227 410       0.0000000000000000e+00
227 411       0.0000000000000000e+00
227 415       0.0000000000000000e+00
227 416       0.0000000000000000e+00
227 417       0.0000000000000000e+00
227 418       0.0000000000000000e+00
227 419       0.0000000000000000e+00
227 420       0.0000000000000000e+00
227 433       0.0000000000000000e+00
227 434       0.0000000000000000e+00
227 435       0.0000000000000000e+00
227 436       0.0000000000000000e+00
227 437       0.0000000000000000e+00
227 438       0.0000000000000000e+00
227 442       0.0000000000000000e+00
227 443       0.0000000000000000e+00
227 444       0.0000000000000000e+00
227 445       0.0000000000000000e+00
227 446       0.0000000000000000e+00
227 447       0.0000000000000000e+00
228 228       0.0000000000000000e+00
228 151       0.0000000000000000e+00
228 152       0.0000000000000000e+00
228 153       0.0000000000000000e+00
228 154       0.0000000000000000e+00
228 155       0.0000000000000000e+00
228 156       0.0000000000000000e+00
228 166       0.0000000000000000e+00
228 167       0.0000000000000000e+00
228 168       0.0000000000000000e+00
228 169       0.0000000000000000e+00
228 170       0.0000000000000000e+00
228 171       0.0000000000000000e+00
228 181       0.0000000000000000e+00
228 182       0.0000000000000000e+00
228 183       0.0000000000000000e+00
228 184       0.0000000000000000e+00
228 185       0.0000000000000000e+00
228 186       0.0000000000000000e+00
228 211       0.0000000000000000e+00
228 212       0.0000000000000000e+00
228 213       0.0000000000000000e+00
228 214       0.0000000000000000e+00
228 215       0.0000000000000000e+00
228 216       0.0000000000000000e+00
228 226       0.0000000000000000e+00
228 227       0.0000000000000000e+00
228 229       0.0000000000000000e+00
228 230       0.0000000000000000e+00
228 231       0.0000000000000000e+00
228 241       0.0000000000000000e+00
228 242       0.0000000000000000e+00
228 243       0.0000000000000000e+00
228 244       0.0000000000000000e+00
228 245       0.0000000000000000e+00
228 246       0.0000000000000000e+00
228 271       0.0000000000000000e+00
228 272       0.0000000000000000e+00
228 273       0.0000000000000000e+00
228 274       0.0000000000000000e+00
228 275       0.0000000000000000e+00
228 276       0.0000000000000000e+00
228 286       0.0000000000000000e+00
228 287       0.0000000000000000e+00
228 288       0.0000000000000000e+00
228 289       0.0000000000000000e+00
228 290       0.0000000000000000e+00
228 291       0.0000000000000000e+00
228 301       0.0000000000000000e+00
228 302       0.0000000000000000e+00
228 303       0.0000000000000000e+00
228 304       0.0000000000000000e+00
228 305       0.0000000000000000e+00
228 306       0.0000000000000000e+00
228 379       0.0000000000000000e+00
228 380       0.0000000000000000e+00
228 381       0.0000000000000000e+00
228 382       0.0000000000000000e+00
228 383       0.0000000000000000e+00
228 384       0.0000000000000000e+00
228 388       0.0000000000000000e+00
228 389       0.0000000000000000e+00
228 390       0.0000000000000000e+00
228 391       0.0000000000000000e+00
228 392       0.0000000000000000e+00
228 393       0.0000000000000000e+00
228 406       0.0000000000000000e+00
228 407       0.0000000000000000e+00
228 408       0.0000000000000000e+00
228 409       0.0000000000000000e+00
228 410       0.0000000000000000e+00
228 411       0.0000000000000000e+00
228 415       0.0000000000000000e+00
228 416       0.0000000000000000e+00
228 417       0.0000000000000000e+00
228 418       0.0000000000000000e+00
228 419       0.0000000000000000e+00
228 420       0.0000000000000000e+00
228 433       0.0000000000000000e+00
228 434       0.0000000000000000e+00
228 435       0.0000000000000000e+00
228 436       0.0000000000000000e+00
228 437       0.0000000000000000e+00
228 438       0.0000000000000000e+00
228 442       0.0000000000000000e+00
228 443       0.0000000000000000e+00
228 444       0.0000000000000000e+00
228 445       0.0000000000000000e+00
228 446       0.0000000000000000e+00
228 447       0.0000000000000000e+00
229 229       0.0000000000000000e+00
229 151       0.0000000000000000e+00
229 152       0.0000000000000000e+00
229 153       0.0000000000000000e+00
229 154       0.0000000000000000e+00
229 155       0.0000000000000000e+00
229 156       0.0000000000000000e+00
229 157       0.0000000000000000e+00
229 158       0.0000000000000000e+00
229 159       0.0000000000000000e+00
229 166       0.0000000000000000e+00
229 167       0.0000000000000000e+00
229 168       0.0000000000000000e+00
229 169       0.0000000000000000e+00
229 170       0.0000000000000000e+00
229 171       0.0000000000000000e+00
229 172       0.0000000000000000e+00
229 173       0.0000000000000000e+00
229 174       0.0000000000000000e+00
229 181       0.0000000000000000e+00
229 182       0.0000000000000000e+00
229 183       0.0000000000000000e+00
229 184       0.0000000000000000e+00
229 185       0.0000000000000000e+00
229 186       0.0000000000000000e+00
229 187       0.0000000000000000e+00
229 188       0.0000000000000000e+00
229 189       0.0000000000000000e+00
229 211       0.0000000000000000e+00
229 212       0.0000000000000000e+00
229 213       0.0000000000000000e+00
229 214       0.0000000000000000e+00
229 215       0.0000000000000000e+00
229 216       0.0000000000000000e+00
229 217       0.0000000000000000e+00
229 218       0.0000000000000000e+00
229 219       0.0000000000000000e+00
229 226       0.0000000000000000e+00
229 227       0.0000000000000000e+00
229 228       0.0000000000000000e+00
229 230       0.0000000000000000e+00
229 231       0.0000000000000000e+00
229 232       0.0000000000000000e+00
229 233       0.0000000000000000e+00
229 234       0.0000000000000000e+00
229 241       0.0000000000000000e+00
229 242       0.0000000000000000e+00
229 243       0.0000000000000000e+00
229 244       0.0000000000000000e+00
229 245       0.0000000000000000e+00
229 246       0.0000000000000000e+00
229 247       0.0000000000000000e+00
229 248       0.0000000000000000e+00
229 249       0.0000000000000000e+00
229 271       0.0000000000000000e+00
229 272       0.0000000000000000e+00
229 273       0.0000000000000000e+00
229 274       0.0000000000000000e+00
229 275       0.0000000000000000e+00
229 276       0.0000000000000000e+00
229 277       0.0000000000000000e+00
229 278       0.0000000000000000e+00
229 279       0.0000000000000000e+00
229 286       0.0000000000000000e+00
229 287       0.0000000000000000e+00
229 288       0.0000000000000000e+00
229 289       0.0000000000000000e+00
229 290       0.0000000000000000e+00
229 291       0.0000000000000000e+00
229 292       0.0000000000000000e+00
229 293       0.0000000000000000e+00
229 294       0.0000000000000000e+00
229 301       0.0000000000000000e+00
229 302       0.0000000000000000e+00
229 303       0.0000000000000000e+00
229 304       0.0000000000000000e+00
229 305       0.0000000000000000e+00
229 306       0.0000000000000000e+00
229 307       0.0000000000000000e+00
229 308       0.0000000000000000e+00
229 309       0.0000000000000000e+00
229 406       0.0000000000000000e+00
229 407       0.0000000000000000e+00
229 408       0.0000000000000000e+00
229 409       0.0000000000000000e+00
229 410       0.0000000000000000e+00
229 411       0.0000000000000000e+00
229 415       0.0000000000000000e+00
229 416       0.0000000000000000e+00
229 417       0.0000000000000000e+00
229 418       0.0000000000000000e+00
229 419       0.0000000000000000e+00
229 420       0.0000000000000000e+00
230 230       0.0000000000000000e+00
230 151       0.0000000000000000e+00
230 152       0.0000000000000000e+00
230 153       0.0000000000000000e+00
230 154       0.0000000000000000e+00
230 155       0.0000000000000000e+00
230 156       0.0000000000000000e+00
230 157       0.0000000000000000e+00
230 158       0.0000000000000000e+00
230 159       0.0000000000000000e+00
230 166       0.0000000000000000e+00
230 167       0.0000000000000000e+00
230 168       0.0000000000000000e+00
230 169       0.0000000000000000e+00
230 170       0.0000000000000000e+00
230 171       0.0000000000000000e+00
230 172       0.0000000000000000e+00
230 173       0.0000000000000000e+00
230 174       0.0000000000000000e+00
230 181       0.0000000000000000e+00
230 182       0.0000000000000000e+00
230 183       0.0000000000000000e+00
230 184       0.0000000000000000e+00
230 185       0.0000000000000000e+00
230 186       0.0000000000000000e+00
230 187       0.0000000000000000e+00
230 188       0.0000000000000000e+00
230 189       0.0000000000000000e+00
230 211       0.0000000000000000e+00
230 212       0.0000000000000000e+00
230 213       0.0000000000000000e+00
230 214       0.0000000000000000e+00
230 215       0.0000000000000000e+00
230 216       0.0000000000000000e+00
230 217       0.0000000000000000e+00
230 218       0.0000000000000000e+00
230 219       0.0000000000000000e+00
230 226       0.0000000000000000e+00
230 227       0.0000000000000000e+00
230 228       0.0000000000000000e+00
230 229       0.0000000000000000e+00
230 231       0.0000000000000000e+00
230 232       0.0000000000000000e+00
230 233       0.0000000000000000e+00
230 234       0.0000000000000000e+00
230 241       0.0000000000000000e+00
230 242       0.0000000000000000e+00
230 243       0.0000000000000000e+00
230 244       0.0000000000000000e+00
230 245       0.0000000000000000e+00
230 246       0.0000000000000000e+00
230 247       0.0000000000000000e+00
230 248       0.0000000000000000e+00
230 249       0.0000000000000000e+00
230 271       0.0000000000000000e+00
230 272       0.0000000000000000e+00
230 273       0.0000000000000000e+00
230 274       0.0000000000000000e+00
230 275       0.0000000000000000e+00
230 276       0.0000000000000000e+00
230 277       0.0000000000000000e+00
230 278       0.0000000000000000e+00
230 279       0.0000000000000000e+00
230 286       0.0000000000000000e+00
230 287       0.0000000000000000e+00
230 288       0.0000000000000000e+00
230 289       0.0000000000000000e+00
230 290       0.0000000000000000e+00
230 291       0.0000000000000000e+00
230 292       0.0000000000000000e+00
230 293       0.0000000000000000e+00
230 294       0.0000000000000000e+00
230 301       0.0000000000000000e+00
230 302       0.0000000000000000e+00
230 303       0.0000000000000000e+00
230 304       0.0000000000000000e+00
230 305       0.0000000000000000e+00
230 306       0.0000000000000000e+00
230 307       0.0000000000000000e+00
230 308       0.0000000000000000e+00
230 309       0.0000000000000000e+00
230 406       0.0000000000000000e+00
230 407       0.0000000000000000e+00
230 408       0.0000000000000000e+00
230 409       0.0000000000000000e+00
230 410       0.0000000000000000e+00
230 411       0.0000000000000000e+00
230 415       0.0000000000000000e+00
230 416       0.0000000000000000e+00
230 417       0.0000000000000000e+00
230 418       0.0000000000000000e+00
230 419       0.0000000000000000e+00
230 420       0.0000000000000000e+00
231 231       0.0000000000000000e+00
231 151       0.0000000000000000e+00
231 152       0.0000000000000000e+00
231 153       0.0000000000000000e+00
231 154       0.0000000000000000e+00
231 155       0.0000000000000000e+00
231 156       0.0000000000000000e+00
231 157       0.0000000000000000e+00
231 158       0.0000000000000000e+00
231 159       0.0000000000000000e+00
231 166       0.0000000000000000e+00
231 167       0.0000000000000000e+00
231 168       0.0000000000000000e+00
231 169       0.0000000000000000e+00
231 170       0.0000000000000000e+00
231 171       0.0000000000000000e+00
231 172       0.0000000000000000e+00
231 173       0.0000000000000000e+00
231 174       0.0000000000000000e+00
231 181       0.0000000000000000e+00
231 182       0.0000000000000000e+00
231 183       0.0000000000000000e+00
231 184       0.0000000000000000e+00
231 185       0.0000000000000000e+00
231 186       0.0000000000000000e+00
231 187       0.0000000000000000e+00
231 188       0.0000000000000000e+00
231 189       0.0000000000000000e+00
231 211       0.0000000000000000e+00
231 212       0.0000000000000000e+00
231 213       0.0000000000000000e+00
231 214       0.0000000000000000e+00
231 215       0.0000000000000000e+00
231 216       0.0000000000000000e+00
231 217       0.0000000000000000e+00
231 218       0.0000000000000000e+00
231 219       0.0000000000000000e+00
231 226       0.0000000000000000e+00
231 227       0.0000000000000000e+00
231 228       0.0000000000000000e+00
231 229       0.0000000000000000e+00
231 230       0.0000000000000000e+00
231 232       0.0000000000000000e+00
231 233       0.0000000000000000e+00
231 234       0.0000000000000000e+00
231 241       0.0000000000000000e+00
231 242       0.0000000000000000e+00
231 243       0.0000000000000000e+00
231 244       0.0000000000000000e+00
231 245       0.0000000000000000e+00
231 246       0.0000000000000000e+00
231 247       0.0000000000000000e+00
231 248       0.0000000000000000e+00
231 249       0.0000000000000000e+00
231 271       0.0000000000000000e+00
231 272       0.0000000000000000e+00
231 273       0.0000000000000000e+00
231 274       0.0000000000000000e+00
231 275       0.0000000000000000e+00
231 276       0.0000000000000000e+00
231 277       0.0000000000000000e+00
231 278       0.0000000000000000e+00
231 279       0.0000000000000000e+00
231 286       0.0000000000000000e+00
231 287       0.0000000000000000e+00
231 288       0.0000000000000000e+00
231 289       0.0000000000000000e+00
231 290       0.0000000000000000e+00
231 291       0.0000000000000000e+00
231 292       0.0000000000000000e+00
231 293       0.0000000000000000e+00
231 294       0.0000000000000000e+00
231 301       0.0000000000000000e+00
231 302       0.0000000000000000e+00
231 303       0.0000000000000000e+00
231 304       0.0000000000000000e+00
231 305       0.0000000000000000e+00
231 306       0.0000000000000000e+00
231 307       0.0000000000000000e+00
231 308       0.0000000000000000e+00
231 309       0.0000000000000000e+00
231 406       0.0000000000000000e+00
231 407       0.0000000000000000e+00
231 408       0.0000000000000000e+00
231 409       0.0000000000000000e+00
231 410       0.0000000000000000e+00
231 411       0.0000000000000000e+00
231 415       0.0000000000000000e+00
231 416       0.0000000000000000e+00
231 417       0.0000000000000000e+00
231 418       0.0000000000000000e+00
231 419       0.0000000000000000e+00
231 420       0.0000000000000000e+00
232 232       0.0000000000000000e+00
232 154       0.0000000000000000e+00
232 155       0.0000000000000000e+00
232 156       0.0000000000000000e+00
232 157       0.0000000000000000e+00
232 158       0.0000000000000000e+00
232 159       0.0000000000000000e+00
232 160       0.0000000000000000e+00
232 161       0.0000000000000000e+00
232 162       0.0000000000000000e+00
232 169       0.0000000000000000e+00
232 170       0.0000000000000000e+00
232 171       0.0000000000000000e+00
232 172       0.0000000000000000e+00
232 173       0.0000000000000000e+00
232 174       0.0000000000000000e+00
232 175       0.0000000000000000e+00
232 176       0.0000000000000000e+00
232 177       0.0000000000000000e+00
232 184       0.0000000000000000e+00
232 185       0.0000000000000000e+00
232 186       0.0000000000000000e+00
232 187       0.0000000000000000e+00
232 188       0.0000000000000000e+00
232 189       0.0000000000000000e+00
232 190       0.0000000000000000e+00
232 191       0.0000000000000000e+00
232 192       0.0000000000000000e+00
232 214       0.0000000000000000e+00
232 215       0.0000000000000000e+00
232 216       0.0000000000000000e+00
232 217       0.0000000000000000e+00
232 218       0.0000000000000000e+00
232 219       0.0000000000000000e+00
232 220       0.0000000000000000e+00
232 221       0.0000000000000000e+00
232 222       0.0000000000000000e+00
232 229       0.0000000000000000e+00
232 230       0.0000000000000000e+00
232 231       0.0000000000000000e+00
232 233       0.0000000000000000e+00
232 234       0.0000000000000000e+00
232 235       0.0000000000000000e+00
232 236       0.0000000000000000e+00
232 237       0.0000000000000000e+00
232 244       0.0000000000000000e+00
232 245       0.0000000000000000e+00
232 246       0.0000000000000000e+00
232 247       0.0000000000000000e+00
232 248       0.0000000000000000e+00
232 249       0.0000000000000000e+00
232 250       0.0000000000000000e+00
232 251       0.0000000000000000e+00
232 252       0.0000000000000000e+00
232 274       0.0000000000000000e+00
232 275       0.0000000000000000e+00
232 276       0.0000000000000000e+00
232 277       0.0000000000000000e+00
232 278       0.0000000000000000e+00
232 279       0.0000000000000000e+00
232 280       0.0000000000000000e+00
232 281       0.0000000000000000e+00
232 282       0.0000000000000000e+00
232 289       0.0000000000000000e+00
232 290       0.0000000000000000e+00
232 291       0.0000000000000000e+00
232 292       0.0000000000000000e+00
232 293       0.0000000000000000e+00
232 294       0.0000000000000000e+00
232 295       0.0000000000000000e+00
232 296       0.0000000000000000e+00
232 297       0.0000000000000000e+00
232 304       0.0000000000000000e+00
232 305       0.0000000000000000e+00
232 306       0.0000000000000000e+00
232 307       0.0000000000000000e+00
232 308       0.0000000000000000e+00
232 309       0.0000000000000000e+00
232 310       0.0000000000000000e+00
232 311       0.0000000000000000e+00
232 312       0.0000000000000000e+00
233 233       0.0000000000000000e+00
233 154       0.0000000000000000e+00
233 155       0.0000000000000000e+00
233 156       0.0000000000000000e+00
233 157       0.0000000000000000e+00
233 158       0.0000000000000000e+00
233 159       0.0000000000000000e+00
233 160       0.0000000000000000e+00
233 161       0.0000000000000000e+00
233 162       0.0000000000000000e+00
233 169       0.0000000000000000e+00
233 170       0.0000000000000000e+00
233 171       0.0000000000000000e+00
233 172       0.0000000000000000e+00
233 173       0.0000000000000000e+00
233 174       0.0000000000000000e+00
233 175       0.0000000000000000e+00
233 176       0.0000000000000000e+00
233 177       0.0000000000000000e+00
233 184       0.0000000000000000e+00
233 185       0.0000000000000000e+00
233 186       0.0000000000000000e+00
233 187       0.0000000000000000e+00
233 188       0.0000000000000000e+00
233 189       0.0000000000000000e+00
233 190       0.0000000000000000e+00
233 191       0.0000000000000000e+00
233 192       0.0000000000000000e+00
233 214       0.0000000000000000e+00
233 215       0.0000000000000000e+00
233 216       0.0000000000000000e+00
233 217       0.0000000000000000e+00
233 218       0.0000000000000000e+00
233 219       0.0000000000000000e+00
233 220       0.0000000000000000e+00
233 221       0.0000000000000000e+00
233 222       0.0000000000000000e+00
233 229       0.0000000000000000e+00
233 230       0.0000000000000000e+00
233 231       0.0000000000000000e+00
233 232       0.0000000000000000e+00
233 234       0.0000000000000000e+00
233 235       0.0000000000000000e+00
233 236       0.0000000000000000e+00
233 237       0.0000000000000000e+00
233 244       0.0000000000000000e+00
233 245       0.0000000000000000e+00
233 246       0.0000000000000000e+00
233 247       0.0000000000000000e+00
233 248       0.0000000000000000e+00
233 249       0.0000000000000000e+00
233 250       0.0000000000000000e+00
233 251       0.0000000000000000e+00
233 252       0.0000000000000000e+00
233 274       0.0000000000000000e+00
233 275       0.0000000000000000e+00
233 276       0.0000000000000000e+00
233 277       0.0000000000000000e+00
233 278       0.0000000000000000e+00
233 279       0.0000000000000000e+00
233 280       0.0000000000000000e+00
233 281       0.0000000000000000e+00
233 282       0.0000000000000000e+00
233 289       0.0000000000000000e+00
233 290       0.0000000000000000e+00
233 291       0.0000000000000000e+00
233 292       0.0000000000000000e+00
233 293       0.0000000000000000e+00
233 294       0.0000000000000000e+00
233 295       0.0000000000000000e+00
233 296       0.0000000000000000e+00
233 297       0.0000000000000000e+00
233 304       0.0000000000000000e+00
233 305       0.0000000000000000e+00
233 306       0.0000000000000000e+00
233 307       0.0000000000000000e+00
233 308       0.0000000000000000e+00
233 309       0.0000000000000000e+00
233 310       0.0000000000000000e+00
233 311       0.0000000000000000e+00
233 312       0.0000000000000000e+00
234 234       0.0000000000000000e+00
234 154       0.0000000000000000e+00
234 155       0.0000000000000000e+00
234 156       0.0000000000000000e+00
234 157       0.0000000000000000e+00
234 158       0.0000000000000000e+00
234 159       0.0000000000000000e+00
234 160       0.0000000000000000e+00
234 161       0.0000000000000000e+00
234 162       0.0000000000000000e+00
234 169       0.0000000000000000e+00
234 170       0.0000000000000000e+00
234 171       0.0000000000000000e+00
234 172       0.0000000000000000e+00
234 173       0.0000000000000000e+00
234 174       0.0000000000000000e+00
234 175       0.0000000000000000e+00
234 176       0.0000000000000000e+00
234 177       0.0000000000000000e+00
234 184       0.0000000000000000e+00
234 185       0.0000000000000000e+00
234 186       0.0000000000000000e+00
234 187       0.0000000000000000e+00
234 188       0.0000000000000000e+00
234 189       0.0000000000000000e+00
234 190       0.0000000000000000e+00
234 191       0.0000000000000000e+00
234 192       0.0000000000000000e+00
234 214       0.0000000000000000e+00
234 215       0.0000000000000000e+00
234 216       0.0000000000000000e+00
234 217       0.0000000000000000e+00
234 218       0.0000000000000000e+00
234 219       0.0000000000000000e+00
234 220       0.0000000000000000e+00
234 221       0.0000000000000000e+00
234 222       0.0000000000000000e+00
234 229       0.0000000000000000e+00
234 230       0.0000000000000000e+00
234 231       0.0000000000000000e+00
234 232       0.0000000000000000e+00
234 233       0.0000000000000000e+00
234 235       0.0000000000000000e+00
234 236       0.0000000000000000e+00
234 237       0.0000000000000000e+00
234 244       0.0000000000000000e+00
234 245       0.0000000000000000e+00
234 246       0.0000000000000000e+00
234 247       0.0000000000000000e+00
234 248       0.0000000000000000e+00
234 249       0.0000000000000000e+00
234 250       0.0000000000000000e+00
234 251       0.0000000000000000e+00
234 252       0.0000000000000000e+00
234 274       0.0000000000000000e+00
234 275       0.0000000000000000e+00
234 276       0.0000000000000000e+00
234 277       0.0000000000000000e+00
234 278       0.0000000000000000e+00
234 279       0.0000000000000000e+00
234 280       0.0000000000000000e+00
234 281       0.0000000000000000e+00
234 282       0.0000000000000000e+00
234 289       0.0000000000000000e+00
234 290       0.0000000000000000e+00
234 291       0.0000000000000000e+00
234 292       0.0000000000000000e+00
234 293       0.0000000000000000e+00
234 294       0.0000000000000000e+00
234 295       0.0000000000000000e+00
234 296       0.0000000000000000e+00
234 297       0.0000000000000000e+00
234 304       0.0000000000000000e+00
234 305       0.0000000000000000e+00
234 306       0.0000000000000000e+00
234 307       0.0000000000000000e+00
234 308       0.0000000000000000e+00
234 309       0.0000000000000000e+00
234 310       0.0000000000000000e+00
234 311       0.0000000000000000e+00
234 312       0.0000000000000000e+00
235 235       0.0000000000000000e+00
235 157       0.0000000000000000e+00
235 158       0.0000000000000000e+00
235 159       0.0000000000000000e+00
235 160       0.0000000000000000e+00
235 161       0.0000000000000000e+00
235 162       0.0000000000000000e+00
235 163       0.0000000000000000e+00
235 164       0.0000000000000000e+00
235 165       0.0000000000000000e+00
235 172       0.0000000000000000e+00
235 173       0.0000000000000000e+00
235 174       0.0000000000000000e+00
235 175       0.0000000000000000e+00
235 176       0.0000000000000000e+00
235 177       0.0000000000000000e+00
235 178       0.0000000000000000e+00
235 179       0.0000000000000000e+00
235 180       0.0000000000000000e+00
235 187       0.0000000000000000e+00
235 188       0.0000000000000000e+00
235 189       0.0000000000000000e+00
235 190       0.0000000000000000e+00
235 191       0.0000000000000000e+00
235 192       0.0000000000000000e+00
235 193       0.0000000000000000e+00
235 194       0.0000000000000000e+00
235 195       0.0000000000000000e+00
235 217       0.0000000000000000e+00
235 218       0.0000000000000000e+00
235 219       0.0000000000000000e+00
235 220       0.0000000000000000e+00
235 221       0.0000000000000000e+00
235 222       0.0000000000000000e+00
235 223       0.0000000000000000e+00
235 224       0.0000000000000000e+00
235 225       0.0000000000000000e+00
235 232       0.0000000000000000e+00
235 233       0.0000000000000000e+00
235 234       0.0000000000000000e+00
235 236       0.0000000000000000e+00
235 237       0.0000000000000000e+00
235 238       0.0000000000000000e+00
235 239       0.0000000000000000e+00
235 240       0.0000000000000000e+00
235 247       0.0000000000000000e+00
235 248       0.0000000000000000e+00
235 249       0.0000000000000000e+00
235 250       0.0000000000000000e+00
235 251       0.0000000000000000e+00
235 252       0.0000000000000000e+00
235 253       0.0000000000000000e+00
235 254       0.0000000000000000e+00
235 255       0.0000000000000000e+00
235 277       0.0000000000000000e+00
235 278       0.0000000000000000e+00
235 279       0.0000000000000000e+00
235 280       0.0000000000000000e+00
235 281       0.0000000000000000e+00
235 282       0.0000000000000000e+00
235 283       0.0000000000000000e+00
235 284       0.0000000000000000e+00
235 285       0.0000000000000000e+00
235 292       0.0000000000000000e+00
235 293       0.0000000000000000e+00
235 294       0.0000000000000000e+00
235 295       0.0000000000000000e+00
235 296       0.0000000000000000e+00
235 297       0.0000000000000000e+00
235 298       0.0000000000000000e+00
235 299       0.0000000000000000e+00
235 300       0.0000000000000000e+00
235 307       0.0000000000000000e+00
235 308       0.0000000000000000e+00
235 309       0.0000000000000000e+00
235 310       0.0000000000000000e+00
235 311       0.0000000000000000e+00
235 312       0.0000000000000000e+00
235 313       0.0000000000000000e+00
235 314       0.0000000000000000e+00
235 315       0.0000000000000000e+00
236 236       0.0000000000000000e+00
236 157       0.0000000000000000e+00
236 158       0.0000000000000000e+00
236 159       0.0000000000000000e+00
236 160       0.0000000000000000e+00
236 161       0.0000000000000000e+00
236 162       0.0000000000000000e+00
236 163       0.0000000000000000e+00
236 164       0.0000000000000000e+00
236 165       0.0000000000000000e+00
236 172       0.0000000000000000e+00
236 173       0.0000000000000000e+00
236 174       0.0000000000000000e+00
236 175       0.0000000000000000e+00
236 176       0.0000000000000000e+00
236 177       0.0000000000000000e+00
236 178       0.0000000000000000e+00
236 179       0.0000000000000000e+00
236 180       0.0000000000000000e+00
236 187       0.0000000000000000e+00
236 188       0.0000000000000000e+00
236 189       0.0000000000000000e+00
236 190       0.0000000000000000e+00
236 191       0.0000000000000000e+00
236 192       0.0000000000000000e+00
236 193       0.0000000000000000e+00
236 194       0.0000000000000000e+00
236 195       0.0000000000000000e+00
236 217       0.0000000000000000e+00
236 218       0.0000000000000000e+00
236 219       0.0000000000000000e+00
236 220       0.0000000000000000e+00
236 221       0.0000000000000000e+00
236 222       0.0000000000000000e+00
236 223       0.0000000000000000e+00
236 224       0.0000000000000000e+00
236 225       0.0000000000000000e+00
236 232       0.0000000000000000e+00
236 233       0.0000000000000000e+00
236 234       0.0000000000000000e+00
236 235       0.0000000000000000e+00
236 237       0.0000000000000000e+00
236 238       0.0000000000000000e+00
236 239       0.0000000000000000e+00
236 240       0.0000000000000000e+00
236 247       0.0000000000000000e+00
236 248       0.0000000000000000e+00
236 249       0.0000000000000000e+00
236 250       0.0000000000000000e+00
236 251       0.0000000000000000e+00
236 252       0.0000000000000000e+00
236 253       0.0000000000000000e+00
236 254       0.0000000000000000e+00
236 255       0.0000000000000000e+00
236 277       0.0000000000000000e+00
236 278       0.0000000000000000e+00
236 279       0.0000000000000000e+00
236 280       0.0000000000000000e+00
236 281       0.0000000000000000e+00
236 282       0.0000000000000000e+00
236 283       0.0000000000000000e+00
236 284       0.0000000000000000e+00
236 285       0.0000000000000000e+00
236 292       0.0000000000000000e+00
236 293       0.0000000000000000e+00
236 294       0.0000000000000000e+00
236 295       0.0000000000000000e+00
236 296       0.0000000000000000e+00
236 297       0.0000000000000000e+00
236 298       0.0000000000000000e+00
236 299       0.0000000000000000e+00
236 300       0.0000000000000000e+00
236 307       0.0000000000000000e+00
236 308       0.0000000000000000e+00
236 309       0.0000000000000000e+00
236 310       0.0000000000000000e+00
236 311       0.0000000000000000e+00
236 312       0.0000000000000000e+00
236 313       0.0000000000000000e+00
236 314       0.0000000000000000e+00
236 315       0.0000000000000000e+00
237 237       0.0000000000000000e+00
237 157       0.0000000000000000e+00
237 158       0.0000000000000000e+00
237 159       0.0000000000000000e+00
237 160       0.0000000000000000e+00
237 161       0.0000000000000000e+00
237 162       0.0000000000000000e+00
237 163       0.0000000000000000e+00
237 164       0.0000000000000000e+00
237 165       0.0000000000000000e+00
237 172       0.0000000000000000e+00
237 173       0.0000000000000000e+00
237 174       0.0000000000000000e+00
237 175       0.0000000000000000e+00
237 176       0.0000000000000000e+00
237 177       0.0000000000000000e+00
237 178       0.0000000000000000e+00
237 179       0.0000000000000000e+00
237 180       0.0000000000000000e+00
237 187       0.0000000000000000e+00
237 188       0.0000000000000000e+00
237 189       0.0000000000000000e+00
237 190       0.0000000000000000e+00
237 191       0.0000000000000000e+00
237 192       0.0000000000000000e+00
237 193       0.0000000000000000e+00
237 194       0.0000000000000000e+00
237 195       0.0000000000000000e+00
237 217       0.0000000000000000e+00
237 218       0.0000000000000000e+00
237 219       0.0000000000000000e+00
237 220       0.0000000000000000e+00
237 221       0.0000000000000000e+00
237 222       0.0000000000000000e+00
237 223       0.0000000000000000e+00
237 224       0.0000000000000000e+00
237 225       0.0000000000000000e+00
237 232       0.0000000000000000e+00
237 233       0.0000000000000000e+00
237 234       0.0000000000000000e+00
237 235       0.0000000000000000e+00
237 236       0.0000000000000000e+00
237 238       0.0000000000000000e+00
237 239       0.0000000000000000e+00
237 240       0.0000000000000000e+00
237 247       0.0000000000000000e+00
237 248       0.0000000000000000e+00
237 249       0.0000000000000000e+00
237 250       0.0000000000000000e+00
237 251       0.0000000000000000e+00
237 252       0.0000000000000000e+00
237 253       0.0000000000000000e+00
237 254       0.0000000000000000e+00
237 255       0.0000000000000000e+00
237 277       0.0000000000000000e+00
237 278       0.0000000000000000e+00
237 279       0.0000000000000000e+00
237 280       0.0000000000000000e+00
237 281       0.0000000000000000e+00
237 282       0.0000000000000000e+00
237 283       0.0000000000000000e+00
237 284       0.0000000000000000e+00
237 285       0.0000000000000000e+00
237 292       0.0000000000000000e+00
237 293       0.0000000000000000e+00
237 294       0.0000000000000000e+00
237 295       0.0000000000000000e+00
237 296       0.0000000000000000e+00
237 297       0.0000000000000000e+00
237 298       0.0000000000000000e+00
237 299       0.0000000000000000e+00
237 300       0.0000000000000000e+00
237 307       0.0000000000000000e+00
237 308       0.0000000000000000e+00
237 309       0.0000000000000000e+00
237 310       0.0000000000000000e+00
237 311       0.0000000000000000e+00
237 312       0.0000000000000000e+00
237 313       0.0000000000000000e+00
237 314       0.0000000000000000e+00
237 315       0.0000000000000000e+00
238 238       0.0000000000000000e+00
238 160       0.0000000000000000e+00
238 161       0.0000000000000000e+00
238 162       0.0000000000000000e+00
238 163       0.0000000000000000e+00
238 164       0.0000000000000000e+00
238 165       0.0000000000000000e+00
238 175       0.0000000000000000e+00
238 176       0.0000000000000000e+00
238 177       0.0000000000000000e+00
238 178       0.0000000000000000e+00
238 179       0.0000000000000000e+00
238 180       0.0000000000000000e+00
238 190       0.0000000000000000e+00
238 191       0.0000000000000000e+00
238 192       0.0000000000000000e+00
238 193       0.0000000000000000e+00
238 194       0.0000000000000000e+00
238 195       0.0000000000000000e+00
238 220       0.0000000000000000e+00
238 221       0.0000000000000000e+00
238 222       0.0000000000000000e+00
238 223       0.0000000000000000e+00
238 224       0.0000000000000000e+00
238 225       0.0000000000000000e+00
238 235       0.0000000000000000e+00
238 236       0.0000000000000000e+00
238 237       0.0000000000000000e+00
238 239       0.0000000000000000e+00
238 240       0.0000000000000000e+00
238 250       0.0000000000000000e+00
238 251       0.0000000000000000e+00
238 252       0.0000000000000000e+00
238 253       0.0000000000000000e+00
238 254       0.0000000000000000e+00
238 255       0.0000000000000000e+00
238 280       0.0000000000000000e+00
238 281       0.0000000000000000e+00
238 282       0.0000000000000000e+00
238 283       0.0000000000000000e+00
238 284       0.0000000000000000e+00
238 285       0.0000000000000000e+00
238 295       0.0000000000000000e+00
238 296       0.0000000000000000e+00
238 297       0.0000000000000000e+00
238 298       0.0000000000000000e+00
238 299       0.0000000000000000e+00
238 300       0.0000000000000000e+00
238 310       0.0000000000000000e+00
238 311       0.0000000000000000e+00
238 312       0.0000000000000000e+00
238 313       0.0000000000000000e+00
238 314       0.0000000000000000e+00
238 315       0.0000000000000000e+00
239 239       0.0000000000000000e+00
239 160       0.0000000000000000e+00
239 161       0.0000000000000000e+00
239 162       0.0000000000000000e+00
239 163       0.0000000000000000e+00
239 164       0.0000000000000000e+00
239 165       0.0000000000000000e+00
239 175       0.0000000000000000e+00
239 176       0.0000000000000000e+00
239 177       0.0000000000000000e+00
239 178       0.0000000000000000e+00
239 179       0.0000000000000000e+00
239 180       0.0000000000000000e+00
239 190       0.0000000000000000e+00
239 191       0.0000000000000000e+00
239 192       0.0000000000000000e+00
239 193       0.0000000000000000e+00
239 194       0.0000000000000000e+00
239 195       0.0000000000000000e+00
239 220       0.0000000000000000e+00
239 221       0.0000000000000000e+00
239 222       0.0000000000000000e+00
239 223       0.0000000000000000e+00
239 224       0.0000000000000000e+00
239 225       0.0000000000000000e+00
239 235       0.0000000000000000e+00
239 236       0.0000000000000000e+00
239 237       0.0000000000000000e+00
239 238       0.0000000000000000e+00
239 240       0.0000000000000000e+00
239 250       0.0000000000000000e+00
239 251       0.0000000000000000e+00
239 252       0.0000000000000000e+00
239 253       0.0000000000000000e+00
239 254       0.0000000000000000e+00
239 255       0.0000000000000000e+00
239 280       0.0000000000000000e+00
239 281       0.0000000000000000e+00
239 282       0.0000000000000000e+00
239 283       0.0000000000000000e+00
239 284       0.0000000000000000e+00
239 285       0.0000000000000000e+00
239 295       0.0000000000000000e+00
239 296       0.0000000000000000e+00
239 297       0.0000000000000000e+00
239 298       0.0000000000000000e+00
239 299       0.0000000000000000e+00
239 300       0.0000000000000000e+00
239 310       0.0000000000000000e+00
239 311       0.0000000000000000e+00
239 312       0.0000000000000000e+00
239 313       0.0000000000000000e+00
239 314       0.0000000000000000e+00
239 315       0.0000000000000000e+00
240 240       0.0000000000000000e+00
240 160       0.0000000000000000e+00
240 161       0.0000000000000000e+00
240 162       0.0000000000000000e+00
240 163       0.0000000000000000e+00
240 164       0.0000000000000000e+00
240 165       0.0000000000000000e+00
240 175       0.0000000000000000e+00
240 176       0.0000000000000000e+00
240 177       0.0000000000000000e+00
240 178       0.0000000000000000e+00
240 179       0.0000000000000000e+00
240 180       0.0000000000000000e+00
240 190       0.0000000000000000e+00
240 191       0.0000000000000000e+00
240 192       0.0000000000000000e+00
240 193       0.0000000000000000e+00
240 194       0.0000000000000000e+00
240 195       0.0000000000000000e+00
240 220       0.0000000000000000e+00
240 221       0.0000000000000000e+00
240 222       0.0000000000000000e+00
240 223       0.0000000000000000e+00
240 224       0.0000000000000000e+00
240 225       0.0000000000000000e+00
240 235       0.0000000000000000e+00
240 236       0.0000000000000000e+00
240 237       0.0000000000000000e+00
240 238       0.0000000000000000e+00
240 239       0.0000000000000000e+00
240 250       0.0000000000000000e+00
240 251       0.0000000000000000e+00
240 252       0.0000000000000000e+00
240 253       0.0000000000000000e+00
240 254       0.0000000000000000e+00
240 255       0.0000000000000000e+00
240 280       0.0000000000000000e+00
240 281       0.0000000000000000e+00
240 282       0.0000000000000000e+00
240 283       0.0000000000000000e+00
240 284       0.0000000000000000e+00
240 285       0.0000000000000000e+00
240 295       0.0000000000000000e+00
240 296       0.0000000000000000e+00
240 297       0.0000000000000000e+00
240 298       0.0000000000000000e+00
240 299       0.0000000000000000e+00
240 300       0.0000000000000000e+00
240 310       0.0000000000000000e+00
240 311       0.0000000000000000e+00
240 312       0.0000000000000000e+00
240 313       0.0000000000000000e+00
240 314       0.0000000000000000e+00
240 315       0.0000000000000000e+00
241 241       0.0000000000000000e+00
241 166       0.0000000000000000e+00
241 167       0.0000000000000000e+00
241 168       0.0000000000000000e+00
241 169       0.0000000000000000e+00
241 170       0.0000000000000000e+00
241 171       0.0000000000000000e+00
241 181       0.0000000000000000e+00
241 182       0.0000000000000000e+00
241 183       0.0000000000000000e+00
241 184       0.0000000000000000e+00
241 185       0.0000000000000000e+00
241 186       0.0000000000000000e+00
241 226       0.0000000000000000e+00
241 227       0.0000000000000000e+00
241 228       0.0000000000000000e+00
241 229       0.0000000000000000e+00
241 230       0.0000000000000000e+00
241 231       0.0000000000000000e+00
241 242       0.0000000000000000e+00
241 243       0.0000000000000000e+00
241 244       0.0000000000000000e+00
241 245       0.0000000000000000e+00
241 246       0.0000000000000000e+00
241 286       0.0000000000000000e+00
241 287       0.0000000000000000e+00
241 288       0.0000000000000000e+00
241 289       0.0000000000000000e+00
241 290       0.0000000000000000e+00
241 291       0.0000000000000000e+00
241 301       0.0000000000000000e+00
241 302       0.0000000000000000e+00
241 303       0.0000000000000000e+00
241 304       0.0000000000000000e+00
241 305       0.0000000000000000e+00
241 306       0.0000000000000000e+00
241 382       0.0000000000000000e+00
241 383       0.0000000000000000e+00
241 384       0.0000000000000000e+00
241 391       0.0000000000000000e+00
241 392       0.0000000000000000e+00
241 393       0.0000000000000000e+00
241 409       0.0000000000000000e+00
241 410       0.0000000000000000e+00
241 411       0.0000000000000000e+00
241 418       0.0000000000000000e+00
241 419       0.0000000000000000e+00
241 420       0.0000000000000000e+00
241 436       0.0000000000000000e+00
241 437       0.0000000000000000e+00
241 438       0.0000000000000000e+00
241 445       0.0000000000000000e+00
241 446       0.0000000000000000e+00
241 447       0.0000000000000000e+00
242 242       0.0000000000000000e+00
242 166       0.0000000000000000e+00
242 167       0.0000000000000000e+00
242 168       0.0000000000000000e+00
242 169       0.0000000000000000e+00
242 170       0.0000000000000000e+00
242 171       0.0000000000000000e+00
242 181       0.0000000000000000e+00
242 182       0.0000000000000000e+00
242 183       0.0000000000000000e+00
242 184       0.0000000000000000e+00
242 185       0.0000000000000000e+00
242 186       0.0000000000000000e+00
242 226       0.0000000000000000e+00
242 227       0.0000000000000000e+00
242 228       0.0000000000000000e+00
242 229       0.0000000000000000e+00
242 230       0.0000000000000000e+00
242 231       0.0000000000000000e+00
242 241       0.0000000000000000e+00
242 243       0.0000000000000000e+00
242 244       0.0000000000000000e+00
242 245       0.0000000000000000e+00
242 246       0.0000000000000000e+00
242 286       0.0000000000000000e+00
242 287       0.0000000000000000e+00
242 288       0.0000000000000000e+00
242 289       0.0000000000000000e+00
242 290       0.0000000000000000e+00
242 291       0.0000000000000000e+00
242 301       0.0000000000000000e+00
242 302       0.0000000000000000e+00
242 303       0.0000000000000000e+00
242 304       0.0000000000000000e+00
242 305       0.0000000000000000e+00
242 306       0.0000000000000000e+00
242 382       0.0000000000000000e+00
242 383       0.0000000000000000e+00
242 384       0.0000000000000000e+00
242 391       0.0000000000000000e+00
242 392       0.0000000000000000e+00
242 393       0.0000000000000000e+00
242 409       0.0000000000000000e+00
242 410       0.0000000000000000e+00
242 411       0.0000000000000000e+00
242 418       0.0000000000000000e+00
242 419       0.0000000000000000e+00
242 420       0.0000000000000000e+00
242 436       0.0000000000000000e+00
242 437       0.0000000000000000e+00
242 438       0.0000000000000000e+00
242 445       0.0000000000000000e+00
242 446       0.0000000000000000e+00
242 447       0.0000000000000000e+00
243 243       0.0000000000000000e+00
243 166       0.0000000000000000e+00
243 167       0.0000000000000000e+00
243 168       0.0000000000000000e+00
243 169       0.0000000000000000e+00
243 170       0.0000000000000000e+00
243 171       0.0000000000000000e+00
243 181       0.0000000000000000e+00
243 182       0.0000000000000000e+00
243 183       0.0000000000000000e+00
243 184       0.0000000000000000e+00
243 185       0.0000000000000000e+00
243 186       0.0000000000000000e+00
243 226       0.0000000000000000e+00
243 227       0.0000000000000000e+00
243 228       0.0000000000000000e+00
243 229       0.0000000000000000e+00
243 230       0.0000000000000000e+00
243 231       0.0000000000000000e+00
243 241       0.0000000000000000e+00
243 242       0.0000000000000000e+00
243 244       0.0000000000000000e+00
243 245       0.0000000000000000e+00
243 246       0.0000000000000000e+00
243 286       0.0000000000000000e+00
243 287       0.0000000000000000e+00
243 288       0.0000000000000000e+00
243 289       0.0000000000000000e+00
243 290       0.0000000000000000e+00
243 291       0.0000000000000000e+00
243 301       0.0000000000000000e+00
243 302       0.0000000000000000e+00
243 303       0.0000000000000000e+00
243 304       0.0000000000000000e+00
243 305       0.0000000000000000e+00
243 306       0.0000000000000000e+00
243 382       0.0000000000000000e+00
243 383       0.0000000000000000e+00
243 384       0.0000000000000000e+00
243 391       0.0000000000000000e+00
243 392       0.0000000000000000e+00
243 393       0.0000000000000000e+00
243 409       0.0000000000000000e+00
243 410       0.0000000000000000e+00
243 411       0.0000000000000000e+00
243 418       0.0000000000000000e+00
243 419       0.0000000000000000e+00
243 420       0.0000000000000000e+00
243 436       0.0000000000000000e+00
243 437       0.0000000000000000e+00
243 438       0.0000000000000000e+00
243 445       0.0000000000000000e+00
243 446       0.0000000000000000e+00
243 447       0.0000000000000000e+00
244 244       0.0000000000000000e+00
244 166       0.0000000000000000e+00
244 167       0.0000000000000000e+00
244 168       0.0000000000000000e+00
244 169       0.0000000000000000e+00
244 170       0.0000000000000000e+00
244 171       0.0000000000000000e+00
244 172       0.0000000000000000e+00
244 173       0.0000000000000000e+00
244 174       0.0000000000000000e+00
244 181       0.0000000000000000e+00
244 182       0.0000000000000000e+00
244 183       0.0000000000000000e+00
244 184       0.0000000000000000e+00
244 185       0.0000000000000000e+00
244 186       0.0000000000000000e+00
244 187       0.0000000000000000e+00
244 188       0.0000000000000000e+00
244 189       0.0000000000000000e+00
244 226       0.0000000000000000e+00
244 227       0.0000000000000000e+00
244 228       0.0000000000000000e+00
244 229       0.0000000000000000e+00
244 230       0.0000000000000000e+00
244 231       0.0000000000000000e+00
244 232       0.0000000000000000e+00
244 233       0.0000000000000000e+00
244 234       0.0000000000000000e+00
244 241       0.0000000000000000e+00
244 242       0.0000000000000000e+00
244 243       0.0000000000000000e+00
244 245       0.0000000000000000e+00
244 246       0.0000000000000000e+00
244 247       0.0000000000000000e+00
244 248       0.0000000000000000e+00
244 249       0.0000000000000000e+00
244 286       0.0000000000000000e+00
244 287       0.0000000000000000e+00
244 288       0.0000000000000000e+00
244 289       0.0000000000000000e+00
244 290       0.0000000000000000e+00
244 291       0.0000000000000000e+00
244 292       0.0000000000000000e+00
244 293       0.0000000000000000e+00
244 294       0.0000000000000000e+00
244 301       0.0000000000000000e+00
244 302       0.0000000000000000e+00
244 303       0.0000000000000000e+00
244 304       0.0000000000000000e+00
244 305       0.0000000000000000e+00
244 306       0.0000000000000000e+00
244 307       0.0000000000000000e+00
244 308       0.0000000000000000e+00
244 309       0.0000000000000000e+00
244 409       0.0000000000000000e+00
244 410       0.0000000000000000e+00
244 411       0.0000000000000000e+00
244 418       0.0000000000000000e+00
244 419       0.0000000000000000e+00
244 420       0.0000000000000000e+00
245 245       0.0000000000000000e+00
245 166       0.0000000000000000e+00
245 167       0.0000000000000000e+00
245 168       0.0000000000000000e+00
245 169       0.0000000000000000e+00
245 170       0.0000000000000000e+00
245 171       0.0000000000000000e+00
245 172       0.0000000000000000e+00
245 173       0.0000000000000000e+00
245 174       0.0000000000000000e+00
245 181       0.0000000000000000e+00
245 182       0.0000000000000000e+00
245 183       0.0000000000000000e+00
245 184       0.0000000000000000e+00
245 185       0.0000000000000000e+00
245 186       0.0000000000000000e+00
245 187       0.0000000000000000e+00
245 188       0.0000000000000000e+00
245 189       0.0000000000000000e+00
245 226       0.0000000000000000e+00
245 227       0.0000000000000000e+00
245 228       0.0000000000000000e+00
245 229       0.0000000000000000e+00
245 230       0.0000000000000000e+00
245 231       0.0000000000000000e+00
245 232       0.0000000000000000e+00
245 233       0.0000000000000000e+00
245 234       0.0000000000000000e+00
245 241       0.0000000000000000e+00
245 242       0.0000000000000000e+00
245 243       0.0000000000000000e+00
245 244       0.0000000000000000e+00
245 246       0.0000000000000000e+00
245 247       0.0000000000000000e+00
245 248       0.0000000000000000e+00
245 249       0.0000000000000000e+00
245 286       0.0000000000000000e+00
245 287       0.0000000000000000e+00
245 288       0.0000000000000000e+00
245 289       0.0000000000000000e+00
245 290       0.0000000000000000e+00
245 291       0.0000000000000000e+00
245 292       0.0000000000000000e+00
245 293       0.0000000000000000e+00
245 294       0.0000000000000000e+00
245 301       0.0000000000000000e+00
245 302       0.0000000000000000e+00
245 303       0.0000000000000000e+00
245 304       0.0000000000000000e+00
245 305       0.0000000000000000e+00
245 306       0.0000000000000000e+00
245 307       0.0000000000000000e+00
245 308       0.0000000000000000e+00
245 309       0.0000000000000000e+00
245 409       0.0000000000000000e+00
245 410       0.0000000000000000e+00
245 411       0.0000000000000000e+00
245 418       0.0000000000000000e+00
245 419       0.0000000000000000e+00
245 420       0.0000000000000000e+00
246 246       0.0000000000000000e+00
246 166       0.0000000000000000e+00
246 167       0.0000000000000000e+00
246 168       0.0000000000000000e+00
246 169       0.0000000000000000e+00
246 170       0.0000000000000000e+00
246 171       0.0000000000000000e+00
246 172       0.0000000000000000e+00
246 173       0.0000000000000000e+00
246 174       0.0000000000000000e+00
246 181       0.0000000000000000e+00
246 182       0.0000000000000000e+00
246 183       0.0000000000000000e+00
246 184       0.0000000000000000e+00
246 185       0.0000000000000000e+00
246 186       0.0000000000000000e+00
246 187       0.0000000000000000e+00
246 188       0.0000000000000000e+00
246 189       0.0000000000000000e+00
246 226       0.0000000000000000e+00
246 227       0.0000000000000000e+00
246 228       0.0000000000000000e+00
246 229       0.0000000000000000e+00
246 230       0.0000000000000000e+00
246 231       0.0000000000000000e+00
246 232       0.0000000000000000e+00
246 233       0.0000000000000000e+00
246 234       0.0000000000000000e+00
246 241       0.0000000000000000e+00
246 242       0.0000000000000000e+00
246 243       0.0000000000000000e+00
246 244       0.0000000000000000e+00
246 245       0.0000000000000000e+00
246 247       0.0000000000000000e+00
246 248       0.0000000000000000e+00
246 249       0.0000000000000000e+00
246 286       0.0000000000000000e+00
246 287       0.0000000000000000e+00
246 288       0.0000000000000000e+00
246 289       0.0000000000000000e+00
246 290       0.0000000000000000e+00
246 291       0.0000000000000000e+00
246 292       0.0000000000000000e+00
246 293       0.0000000000000000e+00
246 294       0.0000000000000000e+00
246 301       0.0000000000000000e+00
246 302       0.0000000000000000e+00
246 303       0.0000000000000000e+00
246 304       0.0000000000000000e+00
246 305       0.0000000000000000e+00
246 306       0.0000000000000000e+00
246 307       0.0000000000000000e+00
246 308       0.0000000000000000e+00
246 309       0.0000000000000000e+00
246 409       0.0000000000000000e+00
246 410       0.0000000000000000e+00
246 411       0.0000000000000000e+00
246 418       0.0000000000000000e+00
246 419       0.0000000000000000e+00
246 420       0.0000000000000000e+00
247 247       0.0000000000000000e+00
247 169       0.0000000000000000e+00
247 170       0.0000000000000000e+00
247 171       0.0000000000000000e+00
247 172       0.0000000000000000e+00
247 173       0.0000000000000000e+00
247 174       0.0000000000000000e+00
247 175       0.0000000000000000e+00
247 176       0.0000000000000000e+00
247 177       0.0000000000000000e+00
247 184       0.0000000000000000e+00
247 185       0.0000000000000000e+00
247 186       0.0000000000000000e+00
247 187       0.0000000000000000e+00
247 188       0.0000000000000000e+00
247 189       0.0000000000000000e+00
247 190       0.0000000000000000e+00
247 191       0.0000000000000000e+00
247 192       0.0000000000000000e+00
247 229       0.0000000000000000e+00
247 230       0.0000000000000000e+00
247 231       0.0000000000000000e+00
247 232       0.0000000000000000e+00
247 233       0.0000000000000000e+00
247 234       0.0000000000000000e+00
247 235       0.0000000000000000e+00
247 236       0.0000000000000000e+00
247 237       0.0000000000000000e+00
247 244       0.0000000000000000e+00
247 245       0.0000000000000000e+00
247 246       0.0000000000000000e+00
247 248       0.0000000000000000e+00
247 249       0.0000000000000000e+00
247 250       0.0000000000000000e+00
247 251       0.0000000000000000e+00
247 252       0.0000000000000000e+00
247 289       0.0000000000000000e+00
247 290       0.0000000000000000e+00
247 291       0.0000000000000000e+00
247 292       0.0000000000000000e+00
247 293       0.0000000000000000e+00
247 294       0.0000000000000000e+00
247 295       0.0000000000000000e+00
247 296       0.0000000000000000e+00
247 297       0.0000000000000000e+00
247 304       0.0000000000000000e+00
247 305       0.0000000000000000e+00
247 306       0.0000000000000000e+00
247 307       0.0000000000000000e+00
247 308       0.0000000000000000e+00
247 309       0.0000000000000000e+00
247 310       0.0000000000000000e+00
247 311       0.0000000000000000e+00
247 312       0.0000000000000000e+00
248 248       0.0000000000000000e+00
248 169       0.0000000000000000e+00
248 170       0.0000000000000000e+00
248 171       0.0000000000000000e+00
248 172       0.0000000000000000e+00
248 173       0.0000000000000000e+00
248 174       0.0000000000000000e+00
248 175       0.0000000000000000e+00
248 176       0.0000000000000000e+00
248 177       0.0000000000000000e+00
248 184       0.0000000000000000e+00
248 185       0.0000000000000000e+00
248 186       0.0000000000000000e+00
248 187       0.0000000000000000e+00
248 188       0.0000000000000000e+00
248 189       0.0000000000000000e+00
248 190       0.0000000000000000e+00
248 191       0.0000000000000000e+00
248 192       0.0000000000000000e+00
248 229       0.0000000000000000e+00
248 230       0.0000000000000000e+00
248 231       0.0000000000000000e+00
248 232       0.0000000000000000e+00
248 233       0.0000000000000000e+00
248 234       0.0000000000000000e+00
248 235       0.0000000000000000e+00
248 236       0.0000000000000000e+00
248 237       0.0000000000000000e+00
248 244       0.0000000000000000e+00
248 245       0.0000000000000000e+00
248 246       0.0000000000000000e+00
248 247       0.0000000000000000e+00
248 249       0.0000000000000000e+00
248 250       0.0000000000000000e+00
248 251       0.0000000000000000e+00
248 252       0.0000000000000000e+00
248 289       0.0000000000000000e+00
248 290       0.0000000000000000e+00
248 291       0.0000000000000000e+00
248 292       0.0000000000000000e+00
248 293       0.0000000000000000e+00
248 294       0.0000000000000000e+00
248 295       0.0000000000000000e+00
248 296       0.0000000000000000e+00
248 297       0.0000000000000000e+00
248 304       0.0000000000000000e+00
248 305       0.0000000000000000e+00
248 306       0.0000000000000000e+00
248 307       0.0000000000000000e+00
248 308       0.0000000000000000e+00
248 309       0.0000000000000000e+00
248 310       0.0000000000000000e+00
248 311       0.0000000000000000e+00
248 312       0.0000000000000000e+00
249 249       0.0000000000000000e+00
249 169       0.0000000000000000e+00
249 170       0.0000000000000000e+00
249 171       0.0000000000000000e+00
249 172       0.0000000000000000e+00
249 173       0.0000000000000000e+00
249 174       0.0000000000000000e+00
249 175       0.0000000000000000e+00
249 176       0.0000000000000000e+00
249 177       0.0000000000000000e+00
249 184       0.0000000000000000e+00
249 185       0.0000000000000000e+00
249 186       0.0000000000000000e+00
249 187       0.0000000000000000e+00
249 188       0.0000000000000000e+00
249 189       0.0000000000000000e+00
249 190       0.0000000000000000e+00
249 191       0.0000000000000000e+00
249 192       0.0000000000000000e+00
249 229       0.0000000000000000e+00
249 230       0.0000000000000000e+00
249 231       0.0000000000000000e+00
249 232       0.0000000000000000e+00
249 233       0.0000000000000000e+00
249 234       0.0000000000000000e+00
249 235       0.0000000000000000e+00
249 236       0.0000000000000000e+00
249 237       0.0000000000000000e+00
249 244       0.0000000000000000e+00
249 245       0.0000000000000000e+00
249 246       0.0000000000000000e+00
249 247       0.0000000000000000e+00
249 248       0.0000000000000000e+00
249 250       0.0000000000000000e+00
249 251       0.0000000000000000e+00
249 252       0.0000000000000000e+00
249 289       0.0000000000000000e+00
249 290       0.0000000000000000e+00
249 291       0.0000000000000000e+00
249 292       0.0000000000000000e+00
249 293       0.0000000000000000e+00
249 294       0.0000000000000000e+00
249 295       0.0000000000000000e+00
249 296       0.0000000000000000e+00
249 297       0.0000000000000000e+00
249 304       0.0000000000000000e+00
249 305       0.0000000000000000e+00
249 306       0.0000000000000000e+00
249 307       0.0000000000000000e+00
249 308       0.0000000000000000e+00
249 309       0.0000000000000000e+00
249 310       0.0000000000000000e+00
249 311       0.0000000000000000e+00
249 312       0.0000000000000000e+00
250 250       0.0000000000000000e+00
250 172       0.0000000000000000e+00
250 173       0.0000000000000000e+00
250 174       0.0000000000000000e+00
250 175       0.0000000000000000e+00
250 176       0.0000000000000000e+00
250 177       0.0000000000000000e+00
250 178       0.0000000000000000e+00
250 179       0.0000000000000000e+00
250 180       0.0000000000000000e+00
250 187       0.0000000000000000e+00
250 188       0.0000000000000000e+00
250 189       0.0000000000000000e+00
250 190       0.0000000000000000e+00
250 191       0.0000000000000000e+00
250 192       0.0000000000000000e+00
250 193       0.0000000000000000e+00
250 194       0.0000000000000000e+00
250 195       0.0000000000000000e+00
250 232       0.0000000000000000e+00
250 233       0.0000000000000000e+00
250 234       0.0000000000000000e+00
250 235       0.0000000000000000e+00
250 236       0.0000000000000000e+00
250 237       0.0000000000000000e+00
250 238       0.0000000000000000e+00
250 239       0.0000000000000000e+00
250 240       0.0000000000000000e+00
250 247       0.0000000000000000e+00
250 248       0.0000000000000000e+00
250 249       0.0000000000000000e+00
250 251       0.0000000000000000e+00
250 252       0.0000000000000000e+00
250 253       0.0000000000000000e+00
250 254       0.0000000000000000e+00
250 255       0.0000000000000000e+00
250 292       0.0000000000000000e+00
250 293       0.0000000000000000e+00
250 294       0.0000000000000000e+00
250 295       0.0000000000000000e+00
250 296       0.0000000000000000e+00
250 297       0.0000000000000000e+00
250 298       0.0000000000000000e+00
250 299       0.0000000000000000e+00
250 300       0.0000000000000000e+00
250 307       0.0000000000000000e+00
250 308       0.0000000000000000e+00
250 309       0.0000000000000000e+00
250 310       0.0000000000000000e+00
250 311       0.0000000000000000e+00
250 312       0.0000000000000000e+00
250 313       0.0000000000000000e+00
250 314       0.0000000000000000e+00
250 315       0.0000000000000000e+00
251 251       0.0000000000000000e+00
251 172       0.0000000000000000e+00
251 173       0.0000000000000000e+00
251 174       0.0000000000000000e+00
251 175       0.0000000000000000e+00
251 176       0.0000000000000000e+00
251 177       0.0000000000000000e+00
251 178       0.0000000000000000e+00
251 179       0.0000000000000000e+00
251 180       0.0000000000000000e+00
251 187       0.0000000000000000e+00
251 188       0.0000000000000000e+00
251 189       0.0000000000000000e+00
251 190       0.0000000000000000e+00
251 191       0.0000000000000000e+00
251 192       0.0000000000000000e+00
251 193       0.0000000000000000e+00
251 194       0.0000000000000000e+00
251 195       0.0000000000000000e+00
251 232       0.0000000000000000e+00
251 233       0.0000000000000000e+00
251 234       0.0000000000000000e+00
251 235       0.0000000000000000e+00
251 236       0.0000000000000000e+00
251 237       0.0000000000000000e+00
251 238       0.0000000000000000e+00
251 239       0.0000000000000000e+00
251 240       0.0000000000000000e+00
251 247       0.0000000000000000e+00
251 248       0.0000000000000000e+00
251 249       0.0000000000000000e+00
251 250       0.0000000000000000e+00
251 252       0.0000000000000000e+00
251 253       0.0000000000000000e+00
251 254       0.0000000000000000e+00
251 255       0.0000000000000000e+00
251 292       0.0000000000000000e+00
251 293       0.0000000000000000e+00
251 294       0.0000000000000000e+00
251 295       0.0000000000000000e+00
251 296       0.0000000000000000e+00
251 297       0.0000000000000000e+00
251 298       0.0000000000000000e+00
251 299       0.0000000000000000e+00
251 300       0.0000000000000000e+00
251 307       0.0000000000000000e+00
251 308       0.0000000000000000e+00
251 309       0.0000000000000000e+00
251 310       0.0000000000000000e+00
251 311       0.0000000000000000e+00
251 312       0.0000000000000000e+00
251 313       0.0000000000000000e+00
251 314       0.0000000000000000e+00
251 315       0.0000000000000000e+00
252 252       0.0000000000000000e+00
252 172       0.0000000000000000e+00
252 173       0.0000000000000000e+00
252 174       0.0000000000000000e+00
252 175       0.0000000000000000e+00
252 176       0.0000000000000000e+00
252 177       0.0000000000000000e+00
252 178       0.0000000000000000e+00
252 179       0.0000000000000000e+00
252 180       0.0000000000000000e+00
252 187       0.0000000000000000e+00
252 188       0.0000000000000000e+00
252 189       0.0000000000000000e+00
252 190       0.0000000000000000e+00
252 191       0.0000000000000000e+00
252 192       0.0000000000000000e+00
252 193       0.0000000000000000e+00
252 194       0.0000000000000000e+00
252 195       0.0000000000000000e+00
252 232       0.0000000000000000e+00
252 233       0.0000000000000000e+00
252 234       0.0000000000000000e+00
252 235       0.0000000000000000e+00
252 236       0.0000000000000000e+00
252 237       0.0000000000000000e+00
252 238       0.0000000000000000e+00
252 239       0.0000000000000000e+00
252 240       0.0000000000000000e+00
252 247       0.0000000000000000e+00
252 248       0.0000000000000000e+00
252 249       0.0000000000000000e+00
252 250       0.0000000000000000e+00
252 251       0.0000000000000000e+00
252 253       0.0000000000000000e+00
252 254       0.0000000000000000e+00
252 255       0.0000000000000000e+00
252 292       0.0000000000000000e+00
252 293       0.0000000000000000e+00
252 294       0.0000000000000000e+00
252 295       0.0000000000000000e+00
252 296       0.0000000000000000e+00
252 297       0.0000000000000000e+00
252 298       0.0000000000000000e+00
252 299       0.0000000000000000e+00
252 300       0.0000000000000000e+00
252 307       0.0000000000000000e+00
252 308       0.0000000000000000e+00
252 309       0.0000000000000000e+00
252 310       0.0000000000000000e+00
252 311       0.0000000000000000e+00
252 312       0.0000000000000000e+00
252 313       0.0000000000000000e+00
252 314       0.0000000000000000e+00
252 315       0.0000000000000000e+00
253 253       0.0000000000000000e+00
253 175       0.0000000000000000e+00
253 176       0.0000000000000000e+00
253 177       0.0000000000000000e+00
253 178       0.0000000000000000e+00
253 179       0.0000000000000000e+00
253 180       0.0000000000000000e+00
253 190       0.0000000000000000e+00
253 191       0.0000000000000000e+00
253 192       0.0000000000000000e+00
253 193       0.0000000000000000e+00
253 194       0.0000000000000000e+00
253 195       0.0000000000000000e+00
253 235       0.0000000000000000e+00
253 236       0.0000000000000000e+00
253 237       0.0000000000000000e+00
253 238       0.0000000000000000e+00
253 239       0.0000000000000000e+00
253 240       0.0000000000000000e+00
253 250       0.0000000000000000e+00
253 251       0.0000000000000000e+00
253 252       0.0000000000000000e+00
253 254       0.0000000000000000e+00
253 255       0.0000000000000000e+00
253 295       0.0000000000000000e+00
253 296       0.0000000000000000e+00
253 297       0.0000000000000000e+00
253 298       0.0000000000000000e+00
253 299       0.0000000000000000e+00
253 300       0.0000000000000000e+00
253 310       0.0000000000000000e+00
253 311       0.0000000000000000e+00
253 312       0.0000000000000000e+00
253 313       0.0000000000000000e+00
253 314       0.0000000000000000e+00
253 315       0.0000000000000000e+00
254 254       0.0000000000000000e+00
254 175       0.0000000000000000e+00
254 176       0.0000000000000000e+00
254 177       0.0000000000000000e+00
254 178       0.0000000000000000e+00
254 179       0.0000000000000000e+00
254 180       0.0000000000000000e+00
254 190       0.0000000000000000e+00
254 191       0.0000000000000000e+00
254 192       0.0000000000000000e+00
254 193       0.0000000000000000e+00
254 194       0.0000000000000000e+00
254 195       0.0000000000000000e+00
254 235       0.0000000000000000e+00
254 236       0.0000000000000000e+00
254 237       0.0000000000000000e+00
254 238       0.0000000000000000e+00
254 239       0.0000000000000000e+00
254 240       0.0000000000000000e+00
254 250       0.0000000000000000e+00
254 251       0.0000000000000000e+00
254 252       0.0000000000000000e+00
254 253       0.0000000000000000e+00
254 255       0.0000000000000000e+00
254 295       0.0000000000000000e+00
254 296       0.0000000000000000e+00
254 297       0.0000000000000000e+00
254 298       0.0000000000000000e+00
254 299       0.0000000000000000e+00
254 300       0.0000000000000000e+00
254 310       0.0000000000000000e+00
254 311       0.0000000000000000e+00
254 312       0.0000000000000000e+00
254 313       0.0000000000000000e+00
254 314       0.0000000000000000e+00
254 315       0.0000000000000000e+00
255 255       0.0000000000000000e+00
255 175       0.0000000000000000e+00
255 176       0.0000000000000000e+00
255 177       0.0000000000000000e+00
255 178       0.0000000000000000e+00
255 179       0.0000000000000000e+00
255 180       0.0000000000000000e+00
255 190       0.0000000000000000e+00
255 191       0.0000000000000000e+00
255 192       0.0000000000000000e+00
255 193       0.0000000000000000e+00
255 194       0.0000000000000000e+00
255 195       0.0000000000000000e+00
255 235       0.0000000000000000e+00
255 236       0.0000000000000000e+00
255 237       0.0000000000000000e+00
255 238       0.0000000000000000e+00
255 239       0.0000000000000000e+00
255 240       0.0000000000000000e+00
255 250       0.0000000000000000e+00
255 251       0.0000000000000000e+00
255 252       0.0000000000000000e+00
255 253       0.0000000000000000e+00
255 254       0.0000000000000000e+00
255 295       0.0000000000000000e+00
255 296       0.0000000000000000e+00
255 297       0.0000000000000000e+00
255 298       0.0000000000000000e+00
255 299       0.0000000000000000e+00
255 300       0.0000000000000000e+00
255 310       0.0000000000000000e+00
255 311       0.0000000000000000e+00
255 312       0.0000000000000000e+00
255 313       0.0000000000000000e+00
255 314       0.0000000000000000e+00
255 315       0.0000000000000000e+00
256 256       0.0000000000000000e+00
256 196       0.0000000000000000e+00
256 197       0.0000000000000000e+00
256 198       0.0000000000000000e+00
256 199       0.0000000000000000e+00
256 200       0.0000000000000000e+00
256 201       0.0000000000000000e+00
256 211       0.0000000000000000e+00
256 212       0.0000000000000000e+00
256 213       0.0000000000000000e+00
256 214       0.0000000000000000e+00
256 215       0.0000000000000000e+00
256 216       0.0000000000000000e+00
256 257       0.0000000000000000e+00
256 258       0.0000000000000000e+00
256 259       0.0000000000000000e+00
256 260       0.0000000000000000e+00
256 261       0.0000000000000000e+00
256 271       0.0000000000000000e+00
256 272       0.0000000000000000e+00
256 273       0.0000000000000000e+00
256 274       0.0000000000000000e+00
256 275       0.0000000000000000e+00
256 276       0.0000000000000000e+00
256 316       0.0000000000000000e+00
256 317       0.0000000000000000e+00
256 318       0.0000000000000000e+00
256 319       0.0000000000000000e+00
256 320       0.0000000000000000e+00
256 321       0.0000000000000000e+00
256 331       0.0000000000000000e+00
256 332       0.0000000000000000e+00
256 333       0.0000000000000000e+00
256 334       0.0000000000000000e+00
256 335       0.0000000000000000e+00
256 336       0.0000000000000000e+00
256 385       0.0000000000000000e+00
256 386       0.0000000000000000e+00
256 387       0.0000000000000000e+00
256 394       0.0000000000000000e+00
256 395       0.0000000000000000e+00
256 396       0.0000000000000000e+00
256 412       0.0000000000000000e+00
256 413       0.0000000000000000e+00
256 414       0.0000000000000000e+00
256 421       0.0000000000000000e+00
256 422       0.0000000000000000e+00
256 423       0.0000000000000000e+00
256 439       0.0000000000000000e+00
256 440       0.0000000000000000e+00
256 441       0.0000000000000000e+00
256 448       0.0000000000000000e+00
256 449       0.0000000000000000e+00
256 450       0.0000000000000000e+00
257 257       0.0000000000000000e+00
257 196       0.0000000000000000e+00
257 197       0.0000000000000000e+00
257 198       0.0000000000000000e+00
257 199       0.0000000000000000e+00
257 200       0.0000000000000000e+00
257 201       0.0000000000000000e+00
257 211       0.0000000000000000e+00
257 212       0.0000000000000000e+00
257 213       0.0000000000000000e+00
257 214       0.0000000000000000e+00
257 215       0.0000000000000000e+00
257 216       0.0000000000000000e+00
257 256       0.0000000000000000e+00
257 258       0.0000000000000000e+00
257 259       0.0000000000000000e+00
257 260       0.0000000000000000e+00
257 261       0.0000000000000000e+00
257 271       0.0000000000000000e+00
257 272       0.0000000000000000e+00
257 273       0.0000000000000000e+00
257 274       0.0000000000000000e+00
257 275       0.0000000000000000e+00
257 276       0.0000000000000000e+00
257 316       0.0000000000000000e+00
257 317       0.0000000000000000e+00
257 318       0.0000000000000000e+00
257 319       0.0000000000000000e+00
257 320       0.0000000000000000e+00
257 321       0.0000000000000000e+00
257 331       0.0000000000000000e+00
257 332       0.0000000000000000e+00
257 333       0.0000000000000000e+00
257 334       0.0000000000000000e+00
257 335       0.0000000000000000e+00
257 336       0.0000000000000000e+00
257 385       0.0000000000000000e+00
257 386       0.0000000000000000e+00
257 387       0.0000000000000000e+00
257 394       0.0000000000000000e+00
257 395       0.0000000000000000e+00
257 396       0.0000000000000000e+00
257 412       0.0000000000000000e+00
257 413       0.0000000000000000e+00
257 414       0.0000000000000000e+00
257 421       0.0000000000000000e+00
257 422       0.0000000000000000e+00
257 423       0.0000000000000000e+00
257 439       0.0000000000000000e+00
257 440       0.0000000000000000e+00
257 441       0.0000000000000000e+00
257 448       0.0000000000000000e+00
257 449       0.0000000000000000e+00
257 450       0.0000000000000000e+00
258 258       0.0000000000000000e+00
258 196       0.0000000000000000e+00
258 197       0.0000000000000000e+00
258 198       0.0000000000000000e+00
258 199       0.0000000000000000e+00
258 200       0.0000000000000000e+00
258 201       0.0000000000000000e+00
258 211       0.0000000000000000e+00
258 212       0.0000000000000000e+00
258 213       0.0000000000000000e+00
258 214       0.0000000000000000e+00
258 215       0.0000000000000000e+00
258 216       0.0000000000000000e+00
258 256       0.0000000000000000e+00
258 257       0.0000000000000000e+00
258 259       0.0000000000000000e+00
258 260       0.0000000000000000e+00
258 261       0.0000000000000000e+00
258 271       0.0000000000000000e+00
258 272       0.0000000000000000e+00
258 273       0.0000000000000000e+00
258 274       0.0000000000000000e+00
258 275       0.0000000000000000e+00
258 276       0.0000000000000000e+00
258 316       0.0000000000000000e+00
258 317       0.0000000000000000e+00
258 318       0.0000000000000000e+00
258 319       0.0000000000000000e+00
258 320       0.0000000000000000e+00
258 321       0.0000000000000000e+00
258 331       0.0000000000000000e+00
258 332       0.0000000000000000e+00
258 333       0.0000000000000000e+00
258 334       0.0000000000000000e+00
258 335       0.0000000000000000e+00
258 336       0.0000000000000000e+00
258 385       0.0000000000000000e+00
258 386       0.0000000000000000e+00
258 387       0.0000000000000000e+00
258 394       0.0000000000000000e+00
258 395       0.0000000000000000e+00
258 396       0.0000000000000000e+00
258 412       0.0000000000000000e+00
258 413       0.0000000000000000e+00
258 414       0.0000000000000000e+00
258 421       0.0000000000000000e+00
258 422       0.0000000000000000e+00
258 423       0.0000000000000000e+00
258 439       0.0000000000000000e+00
258 440       0.0000000000000000e+00
258 441       0.0000000000000000e+00
258 448       0.0000000000000000e+00
258 449       0.0000000000000000e+00
258 450       0.0000000000000000e+00
259 259       0.0000000000000000e+00
259 196       0.0000000000000000e+00
259 197       0.0000000000000000e+00
259 198       0.0000000000000000e+00
259 199       0.0000000000000000e+00
259 200       0.0000000000000000e+00
259 201       0.0000000000000000e+00
259 202       0.0000000000000000e+00
259 203       0.0000000000000000e+00
259 204       0.0000000000000000e+00
259 211       0.0000000000000000e+00
259 212       0.0000000000000000e+00
259 213       0.0000000000000000e+00
259 214       0.0000000000000000e+00
259 215       0.0000000000000000e+00
259 216       0.0000000000000000e+00
259 217       0.0000000000000000e+00
259 218       0.0000000000000000e+00
259 219       0.0000000000000000e+00
259 256       0.0000000000000000e+00
259 257       0.0000000000000000e+00
259 258       0.0000000000000000e+00
259 260       0.0000000000000000e+00
259 261       0.0000000000000000e+00
259 262       0.0000000000000000e+00
259 263       0.0000000000000000e+00
259 264       0.0000000000000000e+00
259 271       0.0000000000000000e+00
259 272       0.0000000000000000e+00
259 273       0.0000000000000000e+00
259 274       0.0000000000000000e+00
259 275       0.0000000000000000e+00
259 276       0.0000000000000000e+00
259 277       0.0000000000000000e+00
259 278       0.0000000000000000e+00
259 279       0.0000000000000000e+00
259 316       0.0000000000000000e+00
259 317       0.0000000000000000e+00
259 318       0.0000000000000000e+00
259 319       0.0000000000000000e+00
259 320       0.0000000000000000e+00
259 321       0.0000000000000000e+00
259 322       0.0000000000000000e+00
259 323       0.0000000000000000e+00
259 324       0.0000000000000000e+00
259 331       0.0000000000000000e+00
259 332       0.0000000000000000e+00
259 333       0.0000000000000000e+00
259 334       0.0000000000000000e+00
259 335       0.0000000000000000e+00
259 336       0.0000000000000000e+00
259 337       0.0000000000000000e+00
259 338       0.0000000000000000e+00
259 339       0.0000000000000000e+00
259 412       0.0000000000000000e+00
259 413       0.0000000000000000e+00
259 414       0.0000000000000000e+00
259 421       0.0000000000000000e+00
259 422       0.0000000000000000e+00
259 423       0.0000000000000000e+00
260 260       0.0000000000000000e+00
260 196       0.0000000000000000e+00
260 197       0.0000000000000000e+00
260 198       0.0000000000000000e+00
260 199       0.0000000000000000e+00
260 200       0.0000000000000000e+00
260 201       0.0000000000000000e+00
260 202       0.0000000000000000e+00
260 203       0.0000000000000000e+00
260 204       0.0000000000000000e+00
260 211       0.0000000000000000e+00
260 212       0.0000000000000000e+00
260 213       0.0000000000000000e+00
260 214       0.0000000000000000e+00
260 215       0.0000000000000000e+00
260 216       0.0000000000000000e+00
260 217       0.0000000000000000e+00
260 218       0.0000000000000000e+00
260 219       0.0000000000000000e+00
260 256       0.0000000000000000e+00
260 257       0.0000000000000000e+00
260 258       0.0000000000000000e+00
260 259       0.0000000000000000e+00
260 261       0.0000000000000000e+00
260 262       0.0000000000000000e+00
260 263       0.0000000000000000e+00
260 264       0.0000000000000000e+00
260 271       0.0000000000000000e+00
260 272       0.0000000000000000e+00
260 273       0.0000000000000000e+00
260 274       0.0000000000000000e+00
260 275       0.0000000000000000e+00
260 276       0.0000000000000000e+00
260 277       0.0000000000000000e+00
260 278       0.0000000000000000e+00
260 279       0.0000000000000000e+00
260 316       0.0000000000000000e+00
260 317       0.0000000000000000e+00
260 318       0.0000000000000000e+00
260 319       0.0000000000000000e+00
260 320       0.0000000000000000e+00
260 321       0.0000000000000000e+00
260 322       0.0000000000000000e+00
260 323       0.0000000000000000e+00
260 324       0.0000000000000000e+00
260 331       0.0000000000000000e+00
260 332       0.0000000000000000e+00
260 333       0.0000000000000000e+00
260 334       0.0000000000000000e+00
260 335       0.0000000000000000e+00
260 336       0.0000000000000000e+00
260 337       0.0000000000000000e+00
260 338       0.0000000000000000e+00
260 339       0.0000000000000000e+00
260 412       0.0000000000000000e+00
260 413       0.0000000000000000e+00
260 414       0.0000000000000000e+00
260 421       0.0000000000000000e+00
260 422       0.0000000000000000e+00
260 423       0.0000000000000000e+00
261 261       0.0000000000000000e+00
261 196       0.0000000000000000e+00
261 197       0.0000000000000000e+00
261 198       0.0000000000000000e+00
261 199       0.0000000000000000e+00
261 200       0.0000000000000000e+00
261 201       0.0000000000000000e+00
261 202       0.0000000000000000e+00
261 203       0.0000000000000000e+00
261 204       0.0000000000000000e+00
261 211       0.0000000000000000e+00
261 212       0.0000000000000000e+00
261 213       0.0000000000000000e+00
261 214       0.0000000000000000e+00
261 215       0.0000000000000000e+00
261 216       0.0000000000000000e+00
261 217       0.0000000000000000e+00
261 218       0.0000000000000000e+00
261 219       0.0000000000000000e+00
261 256       0.0000000000000000e+00
261 257       0.0000000000000000e+00
261 258       0.0000000000000000e+00
261 259       0.0000000000000000e+00
261 260       0.0000000000000000e+00
261 262       0.0000000000000000e+00
261 263       0.0000000000000000e+00
261 264       0.0000000000000000e+00
261 271       0.0000000000000000e+00
261 272       0.0000000000000000e+00
261 273       0.0000000000000000e+00
261 274       0.0000000000000000e+00
261 275       0.0000000000000000e+00
261 276       0.0000000000000000e+00
261 277       0.0000000000000000e+00
261 278       0.0000000000000000e+00
261 279       0.0000000000000000e+00
261 316       0.0000000000000000e+00
261 317       0.0000000000000000e+00
261 318       0.0000000000000000e+00
261 319       0.0000000000000000e+00
261 320       0.0000000000000000e+00
261 321       0.0000000000000000e+00
261 322       0.0000000000000000e+00
261 323       0.0000000000000000e+00
261 324       0.0000000000000000e+00
261 331       0.0000000000000000e+00
261 332       0.0000000000000000e+00
261 333       0.0000000000000000e+00
261 334       0.0000000000000000e+00
261 335       0.0000000000000000e+00
261 336       0.0000000000000000e+00
261 337       0.0000000000000000e+00
261 338       0.0000000000000000e+00
261 339       0.0000000000000000e+00
261 412       0.0000000000000000e+00
261 413       0.0000000000000000e+00
261 414       0.0000000000000000e+00
261 421       0.0000000000000000e+00
261 422       0.0000000000000000e+00
261 423       0.0000000000000000e+00
262 262       0.0000000000000000e+00
262 199       0.0000000000000000e+00
262 200       0.0000000000000000e+00
262 201       0.0000000000000000e+00
262 202       0.0000000000000000e+00
262 203       0.0000000000000000e+00
262 204       0.0000000000000000e+00
262 205       0.0000000000000000e+00
262 206       0.0000000000000000e+00
262 207       0.0000000000000000e+00
262 214       0.0000000000000000e+00
262 215       0.0000000000000000e+00
262 216       0.0000000000000000e+00
262 217       0.0000000000000000e+00
262 218       0.0000000000000000e+00
262 219       0.0000000000000000e+00
262 220       0.0000000000000000e+00
262 221       0.0000000000000000e+00
262 222       0.0000000000000000e+00
262 259       0.0000000000000000e+00
262 260       0.0000000000000000e+00
262 261       0.0000000000000000e+00
262 263       0.0000000000000000e+00
262 264       0.0000000000000000e+00
262 265       0.0000000000000000e+00
262 266       0.0000000000000000e+00
262 267       0.0000000000000000e+00
262 274       0.0000000000000000e+00
262 275       0.0000000000000000e+00
262 276       0.0000000000000000e+00
262 277       0.0000000000000000e+00
262 278       0.0000000000000000e+00
262 279       0.0000000000000000e+00
262 280       0.0000000000000000e+00
262 281       0.0000000000000000e+00
262 282       0.0000000000000000e+00
262 319       0.0000000000000000e+00
262 320       0.0000000000000000e+00
262 321       0.0000000000000000e+00
262 322       0.0000000000000000e+00
262 323       0.0000000000000000e+00
262 324       0.0000000000000000e+00
262 325       0.0000000000000000e+00
262 326       0.0000000000000000e+00
262 327       0.0000000000000000e+00
262 334       0.0000000000000000e+00
262 335       0.0000000000000000e+00
262 336       0.0000000000000000e+00
262 337       0.0000000000000000e+00
262 338       0.0000000000000000e+00
262 339       0.0000000000000000e+00
262 340       0.0000000000000000e+00
262 341       0.0000000000000000e+00
262 342       0.0000000000000000e+00
263 263       0.0000000000000000e+00
263 199       0.0000000000000000e+00
263 200       0.0000000000000000e+00
263 201       0.0000000000000000e+00
263 202       0.0000000000000000e+00
263 203       0.0000000000000000e+00
263 204       0.0000000000000000e+00
263 205       0.0000000000000000e+00
263 206       0.0000000000000000e+00
263 207       0.0000000000000000e+00
263 214       0.0000000000000000e+00
263 215       0.0000000000000000e+00
263 216       0.0000000000000000e+00
263 217       0.0000000000000000e+00
263 218       0.0000000000000000e+00
263 219       0.0000000000000000e+00
263 220       0.0000000000000000e+00
263 221       0.0000000000000000e+00
263 222       0.0000000000000000e+00
263 259       0.0000000000000000e+00
263 260       0.0000000000000000e+00
263 261       0.0000000000000000e+00
263 262       0.0000000000000000e+00
263 264       0.0000000000000000e+00
263 265       0.0000000000000000e+00
263 266       0.0000000000000000e+00
263 267       0.0000000000000000e+00
263 274       0.0000000000000000e+00
263 275       0.0000000000000000e+00
263 276       0.0000000000000000e+00
263 277       0.0000000000000000e+00
263 278       0.0000000000000000e+00
263 279       0.0000000000000000e+00
263 280       0.0000000000000000e+00
263 281       0.0000000000000000e+00
263 282       0.0000000000000000e+00
263 319       0.0000000000000000e+00
263 320       0.0000000000000000e+00
263 321       0.0000000000000000e+00
263 322       0.0000000000000000e+00
263 323       0.0000000000000000e+00
263 324       0.0000000000000000e+00
263 325       0.0000000000000000e+00
263 326       0.0000000000000000e+00
263 327       0.0000000000000000e+00
263 334       0.0000000000000000e+00
263 335       0.0000000000000000e+00
263 336       0.0000000000000000e+00
263 337       0.0000000000000000e+00
263 338       0.0000000000000000e+00
263 339       0.0000000000000000e+00
263 340       0.0000000000000000e+00
263 341       0.0000000000000000e+00
263 342       0.0000000000000000e+00
264 264       0.0000000000000000e+00
264 199       0.0000000000000000e+00
264 200       0.0000000000000000e+00
264 201       0.0000000000000000e+00
264 202       0.0000000000000000e+00
264 203       0.0000000000000000e+00
264 204       0.0000000000000000e+00
264 205       0.0000000000000000e+00
264 206       0.0000000000000000e+00
264 207       0.0000000000000000e+00
264 214       0.0000000000000000e+00
264 215       0.0000000000000000e+00
264 216       0.0000000000000000e+00
264 217       0.0000000000000000e+00
264 218       0.0000000000000000e+00
264 219       0.0000000000000000e+00
264 220       0.0000000000000000e+00
264 221       0.0000000000000000e+00
264 222       0.0000000000000000e+00
264 259       0.0000000000000000e+00
264 260       0.0000000000000000e+00
264 261       0.0000000000000000e+00
264 262       0.0000000000000000e+00
264 263       0.0000000000000000e+00
264 265       0.0000000000000000e+00
264 266       0.0000000000000000e+00
264 267       0.0000000000000000e+00
264 274       0.0000000000000000e+00
264 275       0.0000000000000000e+00
264 276       0.0000000000000000e+00
264 277       0.0000000000000000e+00
264 278       0.0000000000000000e+00
264 279       0.0000000000000000e+00
264 280       0.0000000000000000e+00
264 281       0.0000000000000000e+00
264 282       0.0000000000000000e+00
264 319       0.0000000000000000e+00
264 320       0.0000000000000000e+00
264 321       0.0000000000000000e+00
264 322       0.0000000000000000e+00
264 323       0.0000000000000000e+00
264 324       0.0000000000000000e+00
264 325       0.0000000000000000e+00
264 326       0.0000000000000000e+00
264 327       0.0000000000000000e+00
264 334       0.0000000000000000e+00
264 335       0.0000000000000000e+00
264 336       0.0000000000000000e+00
264 337       0.0000000000000000e+00
264 338       0.0000000000000000e+00
264 339       0.0000000000000000e+00
264 340       0.0000000000000000e+00
264 341       0.0000000000000000e+00
264 342       0.0000000000000000e+00
265 265       0.0000000000000000e+00
265 202       0.0000000000000000e+00
265 203       0.0000000000000000e+00
265 204       0.0000000000000000e+00
265 205       0.0000000000000000e+00
265 206       0.0000000000000000e+00
265 207       0.0000000000000000e+00
265 208       0.0000000000000000e+00
265 209       0.0000000000000000e+00
265 210       0.0000000000000000e+00
265 217       0.0000000000000000e+00
265 218       0.0000000000000000e+00
265 219       0.0000000000000000e+00
265 220       0.0000000000000000e+00
265 221       0.0000000000000000e+00
265 222       0.0000000000000000e+00
265 223       0.0000000000000000e+00
265 224       0.0000000000000000e+00
265 225       0.0000000000000000e+00
265 262       0.0000000000000000e+00
265 263       0.0000000000000000e+00
265 264       0.0000000000000000e+00
265 266       0.0000000000000000e+00
265 267       0.0000000000000000e+00
265 268       0.0000000000000000e+00
265 269       0.0000000000000000e+00
265 270       0.0000000000000000e+00
265 277       0.0000000000000000e+00
265 278       0.0000000000000000e+00
265 279       0.0000000000000000e+00
265 280       0.0000000000000000e+00
265 281       0.0000000000000000e+00
265 282       0.0000000000000000e+00
265 283       0.0000000000000000e+00
265 284       0.0000000000000000e+00
265 285       0.0000000000000000e+00
265 322       0.0000000000000000e+00
265 323       0.0000000000000000e+00
265 324       0.0000000000000000e+00
265 325       0.0000000000000000e+00
265 326       0.0000000000000000e+00
265 327       0.0000000000000000e+00
265 328       0.0000000000000000e+00
265 329       0.0000000000000000e+00
265 330       0.0000000000000000e+00
265 337       0.0000000000000000e+00
265 338       0.0000000000000000e+00
265 339       0.0000000000000000e+00
265 340       0.0000000000000000e+00
265 341       0.0000000000000000e+00
265 342       0.0000000000000000e+00
265 343       0.0000000000000000e+00
265 344       0.0000000000000000e+00
265 345       0.0000000000000000e+00
266 266       0.0000000000000000e+00
266 202       0.0000000000000000e+00
266 203       0.0000000000000000e+00
266 204       0.0000000000000000e+00
266 205       0.0000000000000000e+00
266 206       0.0000000000000000e+00
266 207       0.0000000000000000e+00
266 208       0.0000000000000000e+00
266 209       0.0000000000000000e+00
266 210       0.0000000000000000e+00
266 217       0.0000000000000000e+00
266 218       0.0000000000000000e+00
266 219       0.0000000000000000e+00
266 220       0.0000000000000000e+00
266 221       0.0000000000000000e+00
266 222       0.0000000000000000e+00
266 223       0.0000000000000000e+00
266 224       0.0000000000000000e+00
266 225       0.0000000000000000e+00
266 262       0.0000000000000000e+00
266 263       0.0000000000000000e+00
266 264       0.0000000000000000e+00
266 265       0.0000000000000000e+00
266 267       0.0000000000000000e+00
266 268       0.0000000000000000e+00
266 269       0.0000000000000000e+00
266 270       0.0000000000000000e+00
266 277       0.0000000000000000e+00
266 278       0.0000000000000000e+00
266 279       0.0000000000000000e+00
266 280       0.0000000000000000e+00
266 281       0.0000000000000000e+00
266 282       0.0000000000000000e+00
266 283       0.0000000000000000e+00
266 284       0.0000000000000000e+00
266 285       0.0000000000000000e+00
266 322       0.0000000000000000e+00
266 323       0.0000000000000000e+00
266 324       0.0000000000000000e+00
266 325       0.0000000000000000e+00
266 326       0.0000000000000000e+00
266 327       0.0000000000000000e+00
266 328       0.0000000000000000e+00
266 329       0.0000000000000000e+00
266 330       0.0000000000000000e+00
266 337       0.0000000000000000e+00
266 338       0.0000000000000000e+00
266 339       0.0000000000000000e+00
266 340       0.0000000000000000e+00
266 341       0.0000000000000000e+00
266 342       0.0000000000000000e+00
266 343       0.0000000000000000e+00
266 344       0.0000000000000000e+00
266 345       0.0000000000000000e+00
267 267       0.0000000000000000e+00
267 202       0.0000000000000000e+00
267 203       0.0000000000000000e+00
267 204       0.0000000000000000e+00
267 205       0.0000000000000000e+00
267 206       0.0000000000000000e+00
267 207       0.0000000000000000e+00
267 208       0.0000000000000000e+00
267 209       0.0000000000000000e+00
267 210       0.0000000000000000e+00
267 217       0.0000000000000000e+00
267 218       0.0000000000000000e+00
267 219       0.0000000000000000e+00
267 220       0.0000000000000000e+00
267 221       0.0000000000000000e+00
267 222       0.0000000000000000e+00
267 223       0.0000000000000000e+00
267 224       0.0000000000000000e+00
267 225       0.0000000000000000e+00
267 262       0.0000000000000000e+00
267 263       0.0000000000000000e+00
267 264       0.0000000000000000e+00
267 265       0.0000000000000000e+00
267 266       0.0000000000000000e+00
267 268       0.0000000000000000e+00
267 269       0.0000000000000000e+00
267 270       0.0000000000000000e+00
267 277       0.0000000000000000e+00
267 278       0.0000000000000000e+00
267 279       0.0000000000000000e+00
267 280       0.0000000000000000e+00
267 281       0.0000000000000000e+00
267 282       0.0000000000000000e+00
267 283       0.0000000000000000e+00
267 284       0.0000000000000000e+00
267 285       0.0000000000000000e+00
267 322       0.0000000000000000e+00
267 323       0.0000000000000000e+00
267 324       0.0000000000000000e+00
267 325       0.0000000000000000e+00
267 326       0.0000000000000000e+00
267 327       0.0000000000000000e+00
267 328       0.0000000000000000e+00
267 329       0.0000000000000000e+00
267 330       0.0000000000000000e+00
267 337       0.0000000000000000e+00
267 338       0.0000000000000000e+00
267 339       0.0000000000000000e+00
267 340       0.0000000000000000e+00
267 341       0.0000000000000000e+00
267 342       0.0000000000000000e+00
267 343       0.0000000000000000e+00
267 344       0.0000000000000000e+00
267 345       0.0000000000000000e+00
268 268       0.0000000000000000e+00
268 205       0.0000000000000000e+00
268 206       0.0000000000000000e+00
268 207       0.0000000000000000e+00
268 208       0.0000000000000000e+00
268 209       0.0000000000000000e+00
268 210       0.0000000000000000e+00
268 220       0.0000000000000000e+00
268 221       0.0000000000000000e+00
268 222       0.0000000000000000e+00
268 223       0.0000000000000000e+00
268 224       0.0000000000000000e+00
268 225       0.0000000000000000e+00
268 265       0.0000000000000000e+00
268 266       0.0000000000000000e+00
268 267       0.0000000000000000e+00
268 269       0.0000000000000000e+00
268 270       0.0000000000000000e+00
268 280       0.0000000000000000e+00
268 281       0.0000000000000000e+00
268 282       0.0000000000000000e+00
268 283       0.0000000000000000e+00
268 284       0.0000000000000000e+00
268 285       0.0000000000000000e+00
268 325       0.0000000000000000e+00
268 326       0.0000000000000000e+00
268 327       0.0000000000000000e+00
268 328       0.0000000000000000e+00
268 329       0.0000000000000000e+00
268 330       0.0000000000000000e+00
268 340       0.0000000000000000e+00
268 341       0.0000000000000000e+00
268 342       0.0000000000000000e+00
268 343       0.0000000000000000e+00
268 344       0.0000000000000000e+00
268 345       0.0000000000000000e+00
269 269       0.0000000000000000e+00
269 205       0.0000000000000000e+00
269 206       0.0000000000000000e+00
269 207       0.0000000000000000e+00
269 208       0.0000000000000000e+00
269 209       0.0000000000000000e+00
269 210       0.0000000000000000e+00
269 220       0.0000000000000000e+00
269 221       0.0000000000000000e+00
269 222       0.0000000000000000e+00
269 223       0.0000000000000000e+00
269 224       0.0000000000000000e+00
269 225       0.0000000000000000e+00
269 265       0.0000000000000000e+00
269 266       0.0000000000000000e+00
269 267       0.0000000000000000e+00
269 268       0.0000000000000000e+00
269 270       0.0000000000000000e+00
269 280       0.0000000000000000e+00
269 281       0.0000000000000000e+00
269 282       0.0000000000000000e+00
269 283       0.0000000000000000e+00
269 284       0.0000000000000000e+00
269 285       0.0000000000000000e+00
269 325       0.0000000000000000e+00
269 326       0.0000000000000000e+00
269 327       0.0000000000000000e+00
269 328       0.0000000000000000e+00
269 329       0.0000000000000000e+00
269 330       0.0000000000000000e+00
269 340       0.0000000000000000e+00
269 341       0.0000000000000000e+00
269 342       0.0000000000000000e+00
269 343       0.0000000000000000e+00
269 344       0.0000000000000000e+00
269 345       0.0000000000000000e+00
270 270       0.0000000000000000e+00
270 205       0.0000000000000000e+00
270 206       0.0000000000000000e+00
270 207       0.0000000000000000e+00
270 208       0.0000000000000000e+00
270 209       0.0000000000000000e+00
270 210       0.0000000000000000e+00
270 220       0.0000000000000000e+00
270 221       0.0000000000000000e+00
270 222       0.0000000000000000e+00
270 223       0.0000000000000000e+00
270 224       0.0000000000000000e+00
270 225       0.0000000000000000e+00
270 265       0.0000000000000000e+00
270 266       0.0000000000000000e+00
270 267       0.0000000000000000e+00
270 268       0.0000000000000000e+00
270 269       0.0000000000000000e+00
270 280       0.0000000000000000e+00
270 281       0.0000000000000000e+00
270 282       0.0000000000000000e+00
270 283       0.0000000000000000e+00
270 284       0.0000000000000000e+00
270 285       0.0000000000000000e+00
270 325       0.0000000000000000e+00
270 326       0.0000000000000000e+00
270 327       0.0000000000000000e+00
270 328       0.0000000000000000e+00
270 329       0.0000000000000000e+00
270 330       0.0000000000000000e+00
270 340       0.0000000000000000e+00
270 341       0.0000000000000000e+00
270 342       0.0000000000000000e+00
270 343       0.0000000000000000e+00
270 344       0.0000000000000000e+00
270 345       0.0000000000000000e+00
271 271       0.0000000000000000e+00
271 196       0.0000000000000000e+00
271 197       0.0000000000000000e+00
271 198       0.0000000000000000e+00
271 199       0.0000000000000000e+00
271 200       0.0000000000000000e+00
271 201       0.0000000000000000e+00
271 211       0.0000000000000000e+00
271 212       0.0000000000000000e+00
271 213       0.0000000000000000e+00
271 214       0.0000000000000000e+00
271 215       0.0000000000000000e+00
271 216       0.0000000000000000e+00
271 226       0.0000000000000000e+00
271 227       0.0000000000000000e+00
271 228       0.0000000000000000e+00
271 229       0.0000000000000000e+00
271 230       0.0000000000000000e+00
271 231       0.0000000000000000e+00
271 256       0.0000000000000000e+00
271 257       0.0000000000000000e+00
271 258       0.0000000000000000e+00
271 259       0.0000000000000000e+00
271 260       0.0000000000000000e+00
271 261       0.0000000000000000e+00
271 272       0.0000000000000000e+00
271 273       0.0000000000000000e+00
271 274       0.0000000000000000e+00
271 275       0.0000000000000000e+00
271 276       0.0000000000000000e+00
271 286       0.0000000000000000e+00
271 287       0.0000000000000000e+00
271 288       0.0000000000000000e+00
271 289       0.0000000000000000e+00
271 290       0.0000000000000000e+00
271 291       0.0000000000000000e+00
271 316       0.0000000000000000e+00
271 317       0.0000000000000000e+00
271 318       0.0000000000000000e+00
271 319       0.0000000000000000e+00
271 320       0.0000000000000000e+00
271 321       0.0000000000000000e+00
271 331       0.0000000000000000e+00
271 332       0.0000000000000000e+00
271 333       0.0000000000000000e+00
271 334       0.0000000000000000e+00
271 335       0.0000000000000000e+00
271 336       0.0000000000000000e+00
271 346       0.0000000000000000e+00
271 347       0.0000000000000000e+00
271 348       0.0000000000000000e+00
271 349       0.0000000000000000e+00
271 350       0.0000000000000000e+00
271 351       0.0000000000000000e+00
271 385       0.0000000000000000e+00
271 386       0.0000000000000000e+00
271 387       0.0000000000000000e+00
271 388       0.0000000000000000e+00
271 389       0.0000000000000000e+00
271 390       0.0000000000000000e+00
271 394       0.0000000000000000e+00
271 395       0.0000000000000000e+00
271 396       0.0000000000000000e+00
271 397       0.0000000000000000e+00
271 398       0.0000000000000000e+00
271 399       0.0000000000000000e+00
271 412       0.0000000000000000e+00
271 413       0.0000000000000000e+00
271 414       0.0000000000000000e+00
271 415       0.0000000000000000e+00
271 416       0.0000000000000000e+00
271 417       0.0000000000000000e+00
271 421       0.0000000000000000e+00
271 422       0.0000000000000000e+00
271 423       0.0000000000000000e+00
271 424       0.0000000000000000e+00
271 425       0.0000000000000000e+00
271 426       0.0000000000000000e+00
271 439       0.0000000000000000e+00
271 440       0.0000000000000000e+00
271 441       0.0000000000000000e+00
271 442       0.0000000000000000e+00
271 443       0.0000000000000000e+00
271 444       0.0000000000000000e+00
271 448       0.0000000000000000e+00
271 449       0.0000000000000000e+00
271 450       0.0000000000000000e+00
271 451       0.0000000000000000e+00
271 452       0.0000000000000000e+00
271 453       0.0000000000000000e+00
272 272       0.0000000000000000e+00
272 196       0.0000000000000000e+00
272 197       0.0000000000000000e+00
272 198       0.0000000000000000e+00
272 199       0.0000000000000000e+00
272 200       0.0000000000000000e+00
272 201       0.0000000000000000e+00
272 211       0.0000000000000000e+00
272 212       0.0000000000000000e+00
272 213       0.0000000000000000e+00
272 214       0.0000000000000000e+00
272 215       0.0000000000000000e+00
272 216       0.0000000000000000e+00
272 226       0.0000000000000000e+00
272 227       0.0000000000000000e+00
272 228       0.0000000000000000e+00
272 229       0.0000000000000000e+00
272 230       0.0000000000000000e+00
272 231       0.0000000000000000e+00
272 256       0.0000000000000000e+00
272 257       0.0000000000000000e+00
272 258       0.0000000000000000e+00
272 259       0.0000000000000000e+00
272 260       0.0000000000000000e+00
272 261       0.0000000000000000e+00
272 271       0.0000000000000000e+00
272 273       0.0000000000000000e+00
272 274       0.0000000000000000e+00
272 275       0.0000000000000000e+00
272 276       0.0000000000000000e+00
272 286       0.0000000000000000e+00
272 287       0.0000000000000000e+00
272 288       0.0000000000000000e+00
272 289       0.0000000000000000e+00
272 290       0.0000000000000000e+00
272 291       0.0000000000000000e+00
272 316       0.0000000000000000e+00
272 317       0.0000000000000000e+00
272 318       0.0000000000000000e+00
272 319       0.0000000000000000e+00
272 320       0.0000000000000000e+00
272 321       0.0000000000000000e+00
272 331       0.0000000000000000e+00
272 332       0.0000000000000000e+00
272 333       0.0000000000000000e+00
272 334       0.0000000000000000e+00
272 335       0.0000000000000000e+00
272 336       0.0000000000000000e+00
272 346       0.0000000000000000e+00
272 347       0.0000000000000000e+00
272 348       0.0000000000000000e+00
272 349       0.0000000000000000e+00
272 350       0.0000000000000000e+00
272 351       0.0000000000000000e+00
272 385       0.0000000000000000e+00
272 386       0.0000000000000000e+00
272 387       0.0000000000000000e+00
272 388       0.0000000000000000e+00
272 389       0.0000000000000000e+00
272 390       0.0000000000000000e+00
272 394       0.0000000000000000e+00
272 395       0.0000000000000000e+00
272 396       0.0000000000000000e+00
272 397       0.0000000000000000e+00
272 398       0.0000000000000000e+00
272 399       0.0000000000000000e+00
272 412       0.0000000000000000e+00
272 413       0.0000000000000000e+00
272 414       0.0000000000000000e+00
272 415       0.0000000000000000e+00
272 416       0.0000000000000000e+00
272 417       0.0000000000000000e+00
272 421       0.0000000000000000e+00
272 422       0.0000000000000000e+00
272 423       0.0000000000000000e+00
272 424       0.0000000000000000e+00
272 425       0.0000000000000000e+00
272 426       0.0000000000000000e+00
272 439       0.0000000000000000e+00
272 440       0.0000000000000000e+00
272 441       0.0000000000000000e+00
272 442       0.0000000000000000e+00
272 443       0.0000000000000000e+00
272 444       0.0000000000000000e+00
272 448       0.0000000000000000e+00
272 449       0.0000000000000000e+00
272 450       0.0000000000000000e+00
272 451       0.0000000000000000e+00
272 452       0.0000000000000000e+00
272 453       0.0000000000000000e+00
273 273       0.0000000000000000e+00
273 196       0.0000000000000000e+00
273 197       0.0000000000000000e+00
273 198       0.0000000000000000e+00
273 199       0.0000000000000000e+00
273 200       0.0000000000000000e+00
273 201       0.0000000000000000e+00
273 211       0.0000000000000000e+00
273 212       0.0000000000000000e+00
273 213       0.0000000000000000e+00
273 214       0.0000000000000000e+00
273 215       0.0000000000000000e+00
273 216       0.0000000000000000e+00
273 226       0.0000000000000000e+00
273 227       0.0000000000000000e+00
273 228       0.0000000000000000e+00
273 229       0.0000000000000000e+00
273 230       0.0000000000000000e+00
273 231       0.0000000000000000e+00
273 256       0.0000000000000000e+00
273 257       0.0000000000000000e+00
273 258       0.0000000000000000e+00
273 259       0.0000000000000000e+00
273 260       0.0000000000000000e+00
273 261       0.0000000000000000e+00
273 271       0.0000000000000000e+00
273 272       0.0000000000000000e+00
273 274       0.0000000000000000e+00
273 275       0.0000000000000000e+00
273 276       0.0000000000000000e+00
273 286       0.0000000000000000e+00
273 287       0.0000000000000000e+00
273 288       0.0000000000000000e+00
273 289       0.0000000000000000e+00
273 290       0.0000000000000000e+00
273 291       0.0000000000000000e+00
273 316       0.0000000000000000e+00
273 317       0.0000000000000000e+00
273 318       0.0000000000000000e+00
273 319       0.0000000000000000e+00
273 320       0.0000000000000000e+00
273 321       0.0000000000000000e+00
273 331       0.0000000000000000e+00
273 332       0.0000000000000000e+00
273 333       0.0000000000000000e+00
273 334       0.0000000000000000e+00
273 335       0.0000000000000000e+00
273 336       0.0000000000000000e+00
273 346       0.0000000000000000e+00
273 347       0.0000000000000000e+00
273 348       0.0000000000000000e+00
273 349       0.0000000000000000e+00
273 350       0.0000000000000000e+00
273 351       0.0000000000000000e+00
273 385       0.0000000000000000e+00
273 386       0.0000000000000000e+00
273 387       0.0000000000000000e+00
273 388       0.0000000000000000e+00
273 389       0.0000000000000000e+00
273 390       0.0000000000000000e+00
273 394       0.0000000000000000e+00
273 395       0.0000000000000000e+00
273 396       0.0000000000000000e+00
273 397       0.0000000000000000e+00
273 398       0.0000000000000000e+00
273 399       0.0000000000000000e+00
273 412       0.0000000000000000e+00
273 413       0.0000000000000000e+00
273 414       0.0000000000000000e+00
273 415       0.0000000000000000e+00
273 416       0.0000000000000000e+00
273 417       0.0000000000000000e+00
273 421       0.0000000000000000e+00
273 422       0.0000000000000000e+00
273 423       0.0000000000000000e+00
273 424       0.0000000000000000e+00
273 425       0.0000000000000000e+00
273 426       0.0000000000000000e+00
273 439       0.0000000000000000e+00
273 440       0.0000000000000000e+00
273 441       0.0000000000000000e+00
273 442       0.0000000000000000e+00
273 443       0.0000000000000000e+00
273 444       0.0000000000000000e+00
273 448       0.0000000000000000e+00
273 449       0.0000000000000000e+00
273 450       0.0000000000000000e+00
273 451       0.0000000000000000e+00
273 452       0.0000000000000000e+00
273 453       0.0000000000000000e+00
274 274       0.0000000000000000e+00
274 196       0.0000000000000000e+00
274 197       0.0000000000000000e+00
274 198       0.0000000000000000e+00
274 199       0.0000000000000000e+00
274 200       0.0000000000000000e+00
274 201       0.0000000000000000e+00
274 202       0.0000000000000000e+00
274 203       0.0000000000000000e+00
274 204       0.0000000000000000e+00
274 211       0.0000000000000000e+00
274 212       0.0000000000000000e+00
274 213       0.0000000000000000e+00
274 214       0.0000000000000000e+00
274 215       0.0000000000000000e+00
274 216       0.0000000000000000e+00
274 217       0.0000000000000000e+00
274 218       0.0000000000000000e+00
274 219       0.0000000000000000e+00
274 226       0.0000000000000000e+00
274 227       0.0000000000000000e+00
274 228       0.0000000000000000e+00
274 229       0.0000000000000000e+00
274 230       0.0000000000000000e+00
274 231       0.0000000000000000e+00
274 232       0.0000000000000000e+00
274 233       0.0000000000000000e+00
274 234       0.0000000000000000e+00
274 256       0.0000000000000000e+00
274 257       0.0000000000000000e+00
274 258       0.0000000000000000e+00
274 259       0.0000000000000000e+00
274 260       0.0000000000000000e+00
274 261       0.0000000000000000e+00
274 262       0.0000000000000000e+00
274 263       0.0000000000000000e+00
274 264       0.0000000000000000e+00
274 271       0.0000000000000000e+00
274 272       0.0000000000000000e+00
274 273       0.0000000000000000e+00
274 275       0.0000000000000000e+00
274 276       0.0000000000000000e+00
274 277       0.0000000000000000e+00
274 278       0.0000000000000000e+00
274 279       0.0000000000000000e+00
274 286       0.0000000000000000e+00
274 287       0.0000000000000000e+00
274 288       0.0000000000000000e+00
274 289       0.0000000000000000e+00
274 290       0.0000000000000000e+00
274 291       0.0000000000000000e+00
274 292       0.0000000000000000e+00
274 293       0.0000000000000000e+00
274 294       0.0000000000000000e+00
274 316       0.0000000000000000e+00
274 317       0.0000000000000000e+00
274 318       0.0000000000000000e+00
274 319       0.0000000000000000e+00
274 320       0.0000000000000000e+00
274 321       0.0000000000000000e+00
274 322       0.0000000000000000e+00
274 323       0.0000000000000000e+00
274 324       0.0000000000000000e+00
274 331       0.0000000000000000e+00
274 332       0.0000000000000000e+00
274 333       0.0000000000000000e+00
274 334       0.0000000000000000e+00
274 335       0.0000000000000000e+00
274 336       0.0000000000000000e+00
274 337       0.0000000000000000e+00
274 338       0.0000000000000000e+00
274 339       0.0000000000000000e+00
274 346       0.0000000000000000e+00
274 347       0.0000000000000000e+00
274 348       0.0000000000000000e+00
274 349       0.0000000000000000e+00
274 350       0.0000000000000000e+00
274 351       0.0000000000000000e+00
274 352       0.0000000000000000e+00
274 353       0.0000000000000000e+00
274 354       0.0000000000000000e+00
274 412       0.0000000000000000e+00
274 413       0.0000000000000000e+00
274 414       0.0000000000000000e+00
274 415       0.0000000000000000e+00
274 416       0.0000000000000000e+00
274 417       0.0000000000000000e+00
274 421       0.0000000000000000e+00
274 422       0.0000000000000000e+00
274 423       0.0000000000000000e+00
274 424       0.0000000000000000e+00
274 425       0.0000000000000000e+00
274 426       0.0000000000000000e+00
275 275       0.0000000000000000e+00
275 196       0.0000000000000000e+00
275 197       0.0000000000000000e+00
275 198       0.0000000000000000e+00
275 199       0.0000000000000000e+00
275 200       0.0000000000000000e+00
275 201       0.0000000000000000e+00
275 202       0.0000000000000000e+00
275 203       0.0000000000000000e+00
275 204       0.0000000000000000e+00
275 211       0.0000000000000000e+00
275 212       0.0000000000000000e+00
275 213       0.0000000000000000e+00
275 214       0.0000000000000000e+00
275 215       0.0000000000000000e+00
275 216       0.0000000000000000e+00
275 217       0.0000000000000000e+00
275 218       0.0000000000000000e+00
275 219       0.0000000000000000e+00
275 226       0.0000000000000000e+00
275 227       0.0000000000000000e+00
275 228       0.0000000000000000e+00
275 229       0.0000000000000000e+00
275 230       0.0000000000000000e+00
275 231       0.0000000000000000e+00
275 232       0.0000000000000000e+00
275 233       0.0000000000000000e+00
275 234       0.0000000000000000e+00
275 256       0.0000000000000000e+00
275 257       0.0000000000000000e+00
275 258       0.0000000000000000e+00
275 259       0.0000000000000000e+00
275 260       0.0000000000000000e+00
275 261       0.0000000000000000e+00
275 262       0.0000000000000000e+00
275 263       0.0000000000000000e+00
275 264       0.0000000000000000e+00
275 271       0.0000000000000000e+00
275 272       0.0000000000000000e+00
275 273       0.0000000000000000e+00
275 274       0.0000000000000000e+00
275 276       0.0000000000000000e+00
275 277       0.0000000000000000e+00
275 278       0.0000000000000000e+00
275 279       0.0000000000000000e+00
275 286       0.0000000000000000e+00
275 287       0.0000000000000000e+00
275 288       0.0000000000000000e+00
275 289       0.0000000000000000e+00
275 290       0.0000000000000000e+00
275 291       0.0000000000000000e+00
275 292       0.0000000000000000e+00
275 293       0.0000000000000000e+00
275 294       0.0000000000000000e+00
275 316       0.0000000000000000e+00
275 317       0.0000000000000000e+00
275 318       0.0000000000000000e+00
275 319       0.0000000000000000e+00
275 320       0.0000000000000000e+00
275 321       0.0000000000000000e+00
275 322       0.0000000000000000e+00
275 323       0.0000000000000000e+00
275 324       0.0000000000000000e+00
275 331       0.0000000000000000e+00
275 332       0.0000000000000000e+00
275 333       0.0000000000000000e+00
275 334       0.0000000000000000e+00
275 335       0.0000000000000000e+00
275 336       0.0000000000000000e+00
275 337       0.0000000000000000e+00
275 338       0.0000000000000000e+00
275 339       0.0000000000000000e+00
275 346       0.0000000000000000e+00
275 347       0.0000000000000000e+00
275 348       0.0000000000000000e+00
275 349       0.0000000000000000e+00
275 350       0.0000000000000000e+00
275 351       0.0000000000000000e+00
275 352       0.0000000000000000e+00
275 353       0.0000000000000000e+00
275 354       0.0000000000000000e+00
275 412       0.0000000000000000e+00
275 413       0.0000000000000000e+00
275 414       0.0000000000000000e+00
275 415       0.0000000000000000e+00
275 416       0.0000000000000000e+00
275 417       0.0000000000000000e+00
275 421       0.0000000000000000e+00
275 422       0.0000000000000000e+00
275 423       0.0000000000000000e+00
275 424       0.0000000000000000e+00
275 425       0.0000000000000000e+00
275 426       0.0000000000000000e+00
276 276       0.0000000000000000e+00
276 196       0.0000000000000000e+00
276 197       0.0000000000000000e+00
276 198       0.0000000000000000e+00
276 199       0.0000000000000000e+00
276 200       0.0000000000000000e+00
276 201       0.0000000000000000e+00
276 202       0.0000000000000000e+00
276 203       0.0000000000000000e+00
276 204       0.0000000000000000e+00
276 211       0.0000000000000000e+00
276 212       0.0000000000000000e+00
276 213       0.0000000000000000e+00
276 214       0.0000000000000000e+00
276 215       0.0000000000000000e+00
276 216       0.0000000000000000e+00
276 217       0.0000000000000000e+00
276 218       0.0000000000000000e+00
276 219       0.0000000000000000e+00
276 226       0.0000000000000000e+00
276 227       0.0000000000000000e+00
276 228       0.0000000000000000e+00
276 229       0.0000000000000000e+00
276 230       0.0000000000000000e+00
276 231       0.0000000000000000e+00
276 232       0.0000000000000000e+00
276 233       0.0000000000000000e+00
276 234       0.0000000000000000e+00
276 256       0.0000000000000000e+00
276 257       0.0000000000000000e+00
276 258       0.0000000000000000e+00
276 259       0.0000000000000000e+00
276 260       0.0000000000000000e+00
276 261       0.0000000000000000e+00
276 262       0.0000000000000000e+00
276 263       0.0000000000000000e+00
276 264       0.0000000000000000e+00
276 271       0.0000000000000000e+00
276 272       0.0000000000000000e+00
276 273       0.0000000000000000e+00
276 274       0.0000000000000000e+00
276 275       0.0000000000000000e+00
276 277       0.0000000000000000e+00
276 278       0.0000000000000000e+00
276 279       0.0000000000000000e+00
276 286       0.0000000000000000e+00
276 287       0.0000000000000000e+00
276 288       0.0000000000000000e+00
276 289       0.0000000000000000e+00
276 290       0.0000000000000000e+00
276 291       0.0000000000000000e+00
276 292       0.0000000000000000e+00
276 293       0.0000000000000000e+00
276 294       0.0000000000000000e+00
276 316       0.0000000000000000e+00
276 317       0.0000000000000000e+00
276 318       0.0000000000000000e+00
276 319       0.0000000000000000e+00
276 320       0.0000000000000000e+00
276 321       0.0000000000000000e+00
276 322       0.0000000000000000e+00
276 323       0.0000000000000000e+00
276 324       0.0000000000000000e+00
276 331       0.0000000000000000e+00
276 332       0.0000000000000000e+00
276 333       0.0000000000000000e+00
276 334       0.0000000000000000e+00
276 335       0.0000000000000000e+00
276 336       0.0000000000000000e+00
276 337       0.0000000000000000e+00
276 338       0.0000000000000000e+00
276 339       0.0000000000000000e+00
276 346       0.0000000000000000e+00
276 347       0.0000000000000000e+00
276 348       0.0000000000000000e+00
276 349       0.0000000000000000e+00
276 350       0.0000000000000000e+00
276 351       0.0000000000000000e+00
276 352       0.0000000000000000e+00
276 353       0.0000000000000000e+00
276 354       0.0000000000000000e+00
276 412       0.0000000000000000e+00
276 413       0.0000000000000000e+00
276 414       0.0000000000000000e+00
276 415       0.0000000000000000e+00
276 416       0.0000000000000000e+00
276 417       0.0000000000000000e+00
276 421       0.0000000000000000e+00
276 422       0.0000000000000000e+00
276 423       0.0000000000000000e+00
276 424       0.0000000000000000e+00
276 425       0.0000000000000000e+00
276 426       0.0000000000000000e+00
277 277       0.0000000000000000e+00
277 199       0.0000000000000000e+00
277 200       0.0000000000000000e+00
277 201       0.0000000000000000e+00
277 202       0.0000000000000000e+00
277 203       0.0000000000000000e+00
277 204       0.0000000000000000e+00
277 205       0.0000000000000000e+00
277 206       0.0000000000000000e+00
277 207       0.0000000000000000e+00
277 214       0.0000000000000000e+00
277 215       0.0000000000000000e+00
277 216       0.0000000000000000e+00
277 217       0.0000000000000000e+00
277 218       0.0000000000000000e+00
277 219       0.0000000000000000e+00
277 220       0.0000000000000000e+00
277 221       0.0000000000000000e+00
277 222       0.0000000000000000e+00
277 229       0.0000000000000000e+00
277 230       0.0000000000000000e+00
277 231       0.0000000000000000e+00
277 232       0.0000000000000000e+00
277 233       0.0000000000000000e+00
277 234       0.0000000000000000e+00
277 235       0.0000000000000000e+00
277 236       0.0000000000000000e+00
277 237       0.0000000000000000e+00
277 259       0.0000000000000000e+00
277 260       0.0000000000000000e+00
277 261       0.0000000000000000e+00
277 262       0.0000000000000000e+00
277 263       0.0000000000000000e+00
277 264       0.0000000000000000e+00
277 265       0.0000000000000000e+00
277 266       0.0000000000000000e+00
277 267       0.0000000000000000e+00
277 274       0.0000000000000000e+00
277 275       0.0000000000000000e+00
277 276       0.0000000000000000e+00
277 278       0.0000000000000000e+00
277 279       0.0000000000000000e+00
277 280       0.0000000000000000e+00
277 281       0.0000000000000000e+00
277 282       0.0000000000000000e+00
277 289       0.0000000000000000e+00
277 290       0.0000000000000000e+00
277 291       0.0000000000000000e+00
277 292       0.0000000000000000e+00
277 293       0.0000000000000000e+00
277 294       0.0000000000000000e+00
277 295       0.0000000000000000e+00
277 296       0.0000000000000000e+00
277 297       0.0000000000000000e+00
277 319       0.0000000000000000e+00
277 320       0.0000000000000000e+00
277 321       0.0000000000000000e+00
277 322       0.0000000000000000e+00
277 323       0.0000000000000000e+00
277 324       0.0000000000000000e+00
277 325       0.0000000000000000e+00
277 326       0.0000000000000000e+00
277 327       0.0000000000000000e+00
277 334       0.0000000000000000e+00
277 335       0.0000000000000000e+00
277 336       0.0000000000000000e+00
277 337       0.0000000000000000e+00
277 338       0.0000000000000000e+00
277 339       0.0000000000000000e+00
277 340       0.0000000000000000e+00
277 341       0.0000000000000000e+00
277 342       0.0000000000000000e+00
277 349       0.0000000000000000e+00
277 350       0.0000000000000000e+00
277 351       0.0000000000000000e+00
277 352       0.0000000000000000e+00
277 353       0.0000000000000000e+00
277 354       0.0000000000000000e+00
277 355       0.0000000000000000e+00
277 356       0.0000000000000000e+00
277 357       0.0000000000000000e+00
278 278       0.0000000000000000e+00
278 199       0.0000000000000000e+00
278 200       0.0000000000000000e+00
278 201       0.0000000000000000e+00
278 202       0.0000000000000000e+00
278 203       0.0000000000000000e+00
278 204       0.0000000000000000e+00
278 205       0.0000000000000000e+00
278 206       0.0000000000000000e+00
278 207       0.0000000000000000e+00
278 214       0.0000000000000000e+00
278 215       0.0000000000000000e+00
278 216       0.0000000000000000e+00
278 217       0.0000000000000000e+00
278 218       0.0000000000000000e+00
278 219       0.0000000000000000e+00
278 220       0.0000000000000000e+00
278 221       0.0000000000000000e+00
278 222       0.0000000000000000e+00
278 229       0.0000000000000000e+00
278 230       0.0000000000000000e+00
278 231       0.0000000000000000e+00
278 232       0.0000000000000000e+00
278 233       0.0000000000000000e+00
278 234       0.0000000000000000e+00
278 235       0.0000000000000000e+00
278 236       0.0000000000000000e+00
278 237       0.0000000000000000e+00
278 259       0.0000000000000000e+00
278 260       0.0000000000000000e+00
278 261       0.0000000000000000e+00
278 262       0.0000000000000000e+00
278 263       0.0000000000000000e+00
278 264       0.0000000000000000e+00
278 265       0.0000000000000000e+00
278 266       0.0000000000000000e+00
278 267       0.0000000000000000e+00
278 274       0.0000000000000000e+00
278 275       0.0000000000000000e+00
278 276       0.0000000000000000e+00
278 277       0.0000000000000000e+00
278 279       0.0000000000000000e+00
278 280       0.0000000000000000e+00
278 281       0.0000000000000000e+00
278 282       0.0000000000000000e+00
278 289       0.0000000000000000e+00
278 290       0.0000000000000000e+00
278 291       0.0000000000000000e+00
278 292       0.0000000000000000e+00
278 293       0.0000000000000000e+00
278 294       0.0000000000000000e+00
278 295       0.0000000000000000e+00
278 296       0.0000000000000000e+00
278 297       0.0000000000000000e+00
278 319       0.0000000000000000e+00
278 320       0.0000000000000000e+00
278 321       0.0000000000000000e+00
278 322       0.0000000000000000e+00
278 323       0.0000000000000000e+00
278 324       0.0000000000000000e+00
278 325       0.0000000000000000e+00
278 326       0.0000000000000000e+00
278 327       0.0000000000000000e+00
278 334       0.0000000000000000e+00
278 335       0.0000000000000000e+00
278 336       0.0000000000000000e+00
278 337       0.0000000000000000e+00
278 338       0.0000000000000000e+00
278 339       0.0000000000000000e+00
278 340       0.0000000000000000e+00
278 341       0.0000000000000000e+00
278 342       0.0000000000000000e+00
278 349       0.0000000000000000e+00
278 350       0.0000000000000000e+00
278 351       0.0000000000000000e+00
278 352       0.0000000000000000e+00
278 353       0.0000000000000000e+00
278 354       0.0000000000000000e+00
278 355       0.0000000000000000e+00
278 356       0.0000000000000000e+00
278 357       0.0000000000000000e+00
279 279       0.0000000000000000e+00
279 199       0.0000000000000000e+00
279 200       0.0000000000000000e+00
279 201       0.0000000000000000e+00
279 202       0.0000000000000000e+00
279 203       0.0000000000000000e+00
279 204       0.0000000000000000e+00
279 205       0.0000000000000000e+00
279 206       0.0000000000000000e+00
279 207       0.0000000000000000e+00
279 214       0.0000000000000000e+00
279 215       0.0000000000000000e+00
279 216       0.0000000000000000e+00
279 217       0.0000000000000000e+00
279 218       0.0000000000000000e+00
279 219       0.0000000000000000e+00
279 220       0.0000000000000000e+00
279 221       0.0000000000000000e+00
279 222       0.0000000000000000e+00
279 229       0.0000000000000000e+00
279 230       0.0000000000000000e+00
279 231       0.0000000000000000e+00
279 232       0.0000000000000000e+00
279 233       0.0000000000000000e+00
279 234       0.0000000000000000e+00
279 235       0.0000000000000000e+00
279 236       0.0000000000000000e+00
279 237       0.0000000000000000e+00
279 259       0.0000000000000000e+00
279 260       0.0000000000000000e+00
279 261       0.0000000000000000e+00
279 262       0.0000000000000000e+00
279 263       0.0000000000000000e+00
279 264       0.0000000000000000e+00
279 265       0.0000000000000000e+00
279 266       0.0000000000000000e+00
279 267       0.0000000000000000e+00
279 274       0.0000000000000000e+00
279 275       0.0000000000000000e+00
279 276       0.0000000000000000e+00
279 277       0.0000000000000000e+00
279 278       0.0000000000000000e+00
279 280       0.0000000000000000e+00
279 281       0.0000000000000000e+00
279 282       0.0000000000000000e+00
279 289       0.0000000000000000e+00
279 290       0.0000000000000000e+00
279 291       0.0000000000000000e+00
279 292       0.0000000000000000e+00
279 293       0.0000000000000000e+00
279 294       0.0000000000000000e+00
279 295       0.0000000000000000e+00
279 296       0.0000000000000000e+00
279 297       0.0000000000000000e+00
279 319       0.0000000000000000e+00
279 320       0.0000000000000000e+00
279 321       0.0000000000000000e+00
279 322       0.0000000000000000e+00
279 323       0.0000000000000000e+00
279 324       0.0000000000000000e+00
279 325       0.0000000000000000e+00
279 326       0.0000000000000000e+00
279 327       0.0000000000000000e+00
279 334       0.0000000000000000e+00
279 335       0.0000000000000000e+00
279 336       0.0000000000000000e+00
279 337       0.0000000000000000e+00
279 338       0.0000000000000000e+00
279 339       0.0000000000000000e+00
279 340       0.0000000000000000e+00
279 341       0.0000000000000000e+00
279 342       0.0000000000000000e+00
279 349       0.0000000000000000e+00
279 350       0.0000000000000000e+00
279 351       0.0000000000000000e+00
279 352       0.0000000000000000e+00
279 353       0.0000000000000000e+00
279 354       0.0000000000000000e+00
279 355       0.0000000000000000e+00
279 356       0.0000000000000000e+00
279 357       0.0000000000000000e+00
280 280       0.0000000000000000e+00
280 202       0.0000000000000000e+00
280 203       0.0000000000000000e+00
280 204       0.0000000000000000e+00
280 205       0.0000000000000000e+00
280 206       0.0000000000000000e+00
280 207       0.0000000000000000e+00
280 208       0.0000000000000000e+00
280 209       0.0000000000000000e+00
280 210       0.0000000000000000e+00
280 217       0.0000000000000000e+00
280 218       0.0000000000000000e+00
280 219       0.0000000000000000e+00
280 220       0.0000000000000000e+00
280 221       0.0000000000000000e+00
280 222       0.0000000000000000e+00
280 223       0.0000000000000000e+00
280 224       0.0000000000000000e+00
280 225       0.0000000000000000e+00
280 232       0.0000000000000000e+00
280 233       0.0000000000000000e+00
280 234       0.0000000000000000e+00
280 235       0.0000000000000000e+00
280 236       0.0000000000000000e+00
280 237       0.0000000000000000e+00
280 238       0.0000000000000000e+00
280 239       0.0000000000000000e+00
280 240       0.0000000000000000e+00
280 262       0.0000000000000000e+00
280 263       0.0000000000000000e+00
280 264       0.0000000000000000e+00
280 265       0.0000000000000000e+00
280 266       0.0000000000000000e+00
280 267       0.0000000000000000e+00
280 268       0.0000000000000000e+00
280 269       0.0000000000000000e+00
280 270       0.0000000000000000e+00
280 277       0.0000000000000000e+00
280 278       0.0000000000000000e+00
280 279       0.0000000000000000e+00
280 281       0.0000000000000000e+00
280 282       0.0000000000000000e+00
280 283       0.0000000000000000e+00
280 284       0.0000000000000000e+00
280 285       0.0000000000000000e+00
280 292       0.0000000000000000e+00
280 293       0.0000000000000000e+00
280 294       0.0000000000000000e+00
280 295       0.0000000000000000e+00
280 296       0.0000000000000000e+00
280 297       0.0000000000000000e+00
280 298       0.0000000000000000e+00
280 299       0.0000000000000000e+00
280 300       0.0000000000000000e+00
280 322       0.0000000000000000e+00
280 323       0.0000000000000000e+00
280 324       0.0000000000000000e+00
280 325       0.0000000000000000e+00
280 326       0.0000000000000000e+00
280 327       0.0000000000000000e+00
280 328       0.0000000000000000e+00
280 329       0.0000000000000000e+00
280 330       0.0000000000000000e+00
280 337       0.0000000000000000e+00
280 338       0.0000000000000000e+00
280 339       0.0000000000000000e+00
280 340       0.0000000000000000e+00
280 341       0.0000000000000000e+00
280 342       0.0000000000000000e+00
280 343       0.0000000000000000e+00
280 344       0.0000000000000000e+00
280 345       0.0000000000000000e+00
280 352       0.0000000000000000e+00
280 353       0.0000000000000000e+00
280 354       0.0000000000000000e+00
280 355       0.0000000000000000e+00
280 356       0.0000000000000000e+00
280 357       0.0000000000000000e+00
280 358       0.0000000000000000e+00
280 359       0.0000000000000000e+00
280 360       0.0000000000000000e+00
281 281       0.0000000000000000e+00
281 202       0.0000000000000000e+00
281 203       0.0000000000000000e+00
281 204       0.0000000000000000e+00
281 205       0.0000000000000000e+00
281 206       0.0000000000000000e+00
281 207       0.0000000000000000e+00
281 208       0.0000000000000000e+00
281 209       0.0000000000000000e+00
281 210       0.0000000000000000e+00
281 217       0.0000000000000000e+00
281 218       0.0000000000000000e+00
281 219       0.0000000000000000e+00
281 220       0.0000000000000000e+00
281 221       0.0000000000000000e+00
281 222       0.0000000000000000e+00
281 223       0.0000000000000000e+00
281 224       0.0000000000000000e+00
281 225       0.0000000000000000e+00
281 232       0.0000000000000000e+00
281 233       0.0000000000000000e+00
281 234       0.0000000000000000e+00
281 235       0.0000000000000000e+00
281 236       0.0000000000000000e+00
281 237       0.0000000000000000e+00
281 238       0.0000000000000000e+00
281 239       0.0000000000000000e+00
281 240       0.0000000000000000e+00
281 262       0.0000000000000000e+00
281 263       0.0000000000000000e+00
281 264       0.0000000000000000e+00
281 265       0.0000000000000000e+00
281 266       0.0000000000000000e+00
281 267       0.0000000000000000e+00
281 268       0.0000000000000000e+00
281 269       0.0000000000000000e+00
281 270       0.0000000000000000e+00
281 277       0.0000000000000000e+00
281 278       0.0000000000000000e+00
281 279       0.0000000000000000e+00
281 280       0.0000000000000000e+00
281 282       0.0000000000000000e+00
281 283       0.0000000000000000e+00
281 284       0.0000000000000000e+00
281 285       0.0000000000000000e+00
281 292       0.0000000000000000e+00
281 293       0.0000000000000000e+00
281 294       0.0000000000000000e+00
281 295       0.0000000000000000e+00
281 296       0.0000000000000000e+00
281 297       0.0000000000000000e+00
281 298       0.0000000000000000e+00
281 299       0.0000000000000000e+00
281 300       0.0000000000000000e+00
281 322       0.0000000000000000e+00
281 323       0.0000000000000000e+00
281 324       0.0000000000000000e+00
281 325       0.0000000000000000e+00
281 326       0.0000000000000000e+00
281 327       0.0000000000000000e+00
281 328       0.0000000000000000e+00
281 329       0.0000000000000000e+00
281 330       0.0000000000000000e+00
281 337       0.0000000000000000e+00
281 338       0.0000000000000000e+00
281 339       0.0000000000000000e+00
281 340       0.0000000000000000e+00
281 341       0.0000000000000000e+00
281 342       0.0000000000000000e+00
281 343       0.0000000000000000e+00
281 344       0.0000000000000000e+00
281 345       0.0000000000000000e+00
281 352       0.0000000000000000e+00
281 353       0.0000000000000000e+00
281 354       0.0000000000000000e+00
281 355       0.0000000000000000e+00
281 356       0.0000000000000000e+00
281 357       0.0000000000000000e+00
281 358       0.0000000000000000e+00
281 359       0.0000000000000000e+00
281 360       0.0000000000000000e+00
282 282       0.0000000000000000e+00
282 202       0.0000000000000000e+00
282 203       0.0000000000000000e+00
282 204       0.0000000000000000e+00
282 205       0.0000000000000000e+00
282 206       0.0000000000000000e+00
282 207       0.0000000000000000e+00
282 208       0.0000000000000000e+00
282 209       0.0000000000000000e+00
282 210       0.0000000000000000e+00
282 217       0.0000000000000000e+00
282 218       0.0000000000000000e+00
282 219       0.0000000000000000e+00
282 220       0.0000000000000000e+00
282 221       0.0000000000000000e+00
282 222       0.0000000000000000e+00
282 223       0.0000000000000000e+00
282 224       0.0000000000000000e+00
282 225       0.0000000000000000e+00
282 232       0.0000000000000000e+00
282 233       0.0000000000000000e+00
282 234       0.0000000000000000e+00
282 235       0.0000000000000000e+00
282 236       0.0000000000000000e+00
282 237       0.0000000000000000e+00
282 238       0.0000000000000000e+00
282 239       0.0000000000000000e+00
282 240       0.0000000000000000e+00
282 262       0.0000000000000000e+00
282 263       0.0000000000000000e+00
282 264       0.0000000000000000e+00
282 265       0.0000000000000000e+00
282 266       0.0000000000000000e+00
282 267       0.0000000000000000e+00
282 268       0.0000000000000000e+00
282 269       0.0000000000000000e+00
282 270       0.0000000000000000e+00
282 277       0.0000000000000000e+00
282 278       0.0000000000000000e+00
282 279       0.0000000000000000e+00
282 280       0.0000000000000000e+00
282 281       0.0000000000000000e+00
282 283       0.0000000000000000e+00
282 284       0.0000000000000000e+00
282 285       0.0000000000000000e+00
282 292       0.0000000000000000e+00
282 293       0.0000000000000000e+00
282 294       0.0000000000000000e+00
282 295       0.0000000000000000e+00
282 296       0.0000000000000000e+00
282 297       0.0000000000000000e+00
282 298       0.0000000000000000e+00
282 299       0.0000000000000000e+00
282 300       0.0000000000000000e+00
282 322       0.0000000000000000e+00
282 323       0.0000000000000000e+00
282 324       0.0000000000000000e+00
282 325       0.0000000000000000e+00
282 326       0.0000000000000000e+00
282 327       0.0000000000000000e+00
282 328       0.0000000000000000e+00
282 329       0.0000000000000000e+00
282 330       0.0000000000000000e+00
282 337       0.0000000000000000e+00
282 338       0.0000000000000000e+00
282 339       0.0000000000000000e+00
282 340       0.0000000000000000e+00
282 341       0.0000000000000000e+00
282 342       0.0000000000000000e+00
282 343       0.0000000000000000e+00
282 344       0.0000000000000000e+00
282 345       0.0000000000000000e+00
282 352       0.0000000000000000e+00
282 353       0.0000000000000000e+00
282 354       0.0000000000000000e+00
282 355       0.0000000000000000e+00
282 356       0.0000000000000000e+00
282 357       0.0000000000000000e+00
282 358       0.0000000000000000e+00
282 359       0.0000000000000000e+00
282 360       0.0000000000000000e+00
283 283       0.0000000000000000e+00
283 205       0.0000000000000000e+00
283 206       0.0000000000000000e+00
283 207       0.0000000000000000e+00
283 208       0.0000000000000000e+00
283 209       0.0000000000000000e+00
283 210       0.0000000000000000e+00
283 220       0.0000000000000000e+00
283 221       0.0000000000000000e+00
283 222       0.0000000000000000e+00
283 223       0.0000000000000000e+00
283 224       0.0000000000000000e+00
283 225       0.0000000000000000e+00
283 235       0.0000000000000000e+00
283 236       0.0000000000000000e+00
283 237       0.0000000000000000e+00
283 238       0.0000000000000000e+00
283 239       0.0000000000000000e+00
283 240       0.0000000000000000e+00
283 265       0.0000000000000000e+00
283 266       0.0000000000000000e+00
283 267       0.0000000000000000e+00
283 268       0.0000000000000000e+00
283 269       0.0000000000000000e+00
283 270       0.0000000000000000e+00
283 280       0.0000000000000000e+00
283 281       0.0000000000000000e+00
283 282       0.0000000000000000e+00
283 284       0.0000000000000000e+00
283 285       0.0000000000000000e+00
283 295       0.0000000000000000e+00
283 296       0.0000000000000000e+00
283 297       0.0000000000000000e+00
283 298       0.0000000000000000e+00
283 299       0.0000000000000000e+00
283 300       0.0000000000000000e+00
283 325       0.0000000000000000e+00
283 326       0.0000000000000000e+00
283 327       0.0000000000000000e+00
283 328       0.0000000000000000e+00
283 329       0.0000000000000000e+00
283 330       0.0000000000000000e+00
283 340       0.0000000000000000e+00
283 341       0.0000000000000000e+00
283 342       0.0000000000000000e+00
283 343       0.0000000000000000e+00
283 344       0.0000000000000000e+00
283 345       0.0000000000000000e+00
283 355       0.0000000000000000e+00
283 356       0.0000000000000000e+00
283 357       0.0000000000000000e+00
283 358       0.0000000000000000e+00
283 359       0.0000000000000000e+00
283 360       0.0000000000000000e+00
284 284       0.0000000000000000e+00
284 205       0.0000000000000000e+00
284 206       0.0000000000000000e+00
284 207       0.0000000000000000e+00
284 208       0.0000000000000000e+00
284 209       0.0000000000000000e+00
284 210       0.0000000000000000e+00
284 220       0.0000000000000000e+00
284 221       0.0000000000000000e+00
284 222       0.0000000000000000e+00
284 223       0.0000000000000000e+00
284 224       0.0000000000000000e+00
284 225       0.0000000000000000e+00
284 235       0.0000000000000000e+00
284 236       0.0000000000000000e+00
284 237       0.0000000000000000e+00
284 238       0.0000000000000000e+00
284 239       0.0000000000000000e+00
284 240       0.0000000000000000e+00
284 265       0.0000000000000000e+00
284 266       0.0000000000000000e+00
284 267       0.0000000000000000e+00
284 268       0.0000000000000000e+00
284 269       0.0000000000000000e+00
284 270       0.0000000000000000e+00
284 280       0.0000000000000000e+00
284 281       0.0000000000000000e+00
284 282       0.0000000000000000e+00
284 283       0.0000000000000000e+00
284 285       0.0000000000000000e+00
284 295       0.0000000000000000e+00
284 296       0.0000000000000000e+00
284 297       0.0000000000000000e+00
284 298       0.0000000000000000e+00
284 299       0.0000000000000000e+00
284 300       0.0000000000000000e+00
284 325       0.0000000000000000e+00
284 326       0.0000000000000000e+00
284 327       0.0000000000000000e+00
284 328       0.0000000000000000e+00
284 329       0.0000000000000000e+00
284 330       0.0000000000000000e+00
284 340       0.0000000000000000e+00
284 341       0.0000000000000000e+00
284 342       0.0000000000000000e+00
284 343       0.0000000000000000e+00
284 344       0.0000000000000000e+00
284 345       0.0000000000000000e+00
284 355       0.0000000000000000e+00
284 356       0.0000000000000000e+00
284 357       0.0000000000000000e+00
284 358       0.0000000000000000e+00
284 359       0.0000000000000000e+00
284 360       0.0000000000000000e+00
285 285       0.0000000000000000e+00
285 205       0.0000000000000000e+00
285 206       0.0000000000000000e+00
285 207       0.0000000000000000e+00
285 208       0.0000000000000000e+00
285 209       0.0000000000000000e+00
285 210       0.0000000000000000e+00
285 220       0.0000000000000000e+00
285 221       0.0000000000000000e+00
285 222       0.0000000000000000e+00
285 223       0.0000000000000000e+00
285 224       0.0000000000000000e+00
285 225       0.0000000000000000e+00
285 235       0.0000000000000000e+00
285 236       0.0000000000000000e+00
285 237       0.0000000000000000e+00
285 238       0.0000000000000000e+00
285 239       0.0000000000000000e+00
285 240       0.0000000000000000e+00
285 265       0.0000000000000000e+00
285 266       0.0000000000000000e+00
285 267       0.0000000000000000e+00
285 268       0.0000000000000000e+00
285 269       0.0000000000000000e+00
285 270       0.0000000000000000e+00
285 280       0.0000000000000000e+00
285 281       0.0000000000000000e+00
285 282       0.0000000000000000e+00
285 283       0.0000000000000000e+00
285 284       0.0000000000000000e+00
285 295       0.0000000000000000e+00
285 296       0.0000000000000000e+00
285 297       0.0000000000000000e+00
285 298       0.0000000000000000e+00
285 299       0.0000000000000000e+00
285 300       0.0000000000000000e+00
285 325       0.0000000000000000e+00
285 326       0.0000000000000000e+00
285 327       0.0000000000000000e+00
285 328       0.0000000000000000e+00
285 329       0.0000000000000000e+00
285 330       0.0000000000000000e+00
285 340       0.0000000000000000e+00
285 341       0.0000000000000000e+00
285 342       0.0000000000000000e+00
285 343       0.0000000000000000e+00
285 344       0.0000000000000000e+00
285 345       0.0000000000000000e+00
285 355       0.0000000000000000e+00
285 356       0.0000000000000000e+00
285 357       0.0000000000000000e+00
285 358       0.0000000000000000e+00
285 359       0.0000000000000000e+00
285 360       0.0000000000000000e+00
286 286       0.0000000000000000e+00
286 211       0.0000000000000000e+00
286 212       0.0000000000000000e+00
286 213       0.0000000000000000e+00
286 214       0.0000000000000000e+00
286 215       0.0000000000000000e+00
286 216       0.0000000000000000e+00
286 226       0.0000000000000000e+00
286 227       0.0000000000000000e+00
286 228       0.0000000000000000e+00
286 229       0.0000000000000000e+00
286 230       0.0000000000000000e+00
286 231       0.0000000000000000e+00
286 241       0.0000000000000000e+00
286 242       0.0000000000000000e+00
286 243       0.0000000000000000e+00
286 244       0.0000000000000000e+00
286 245       0.0000000000000000e+00
286 246       0.0000000000000000e+00
286 271       0.0000000000000000e+00
286 272       0.0000000000000000e+00
286 273       0.0000000000000000e+00
286 274       0.0000000000000000e+00
286 275       0.0000000000000000e+00
286 276       0.0000000000000000e+00
286 287       0.0000000000000000e+00
286 288       0.0000000000000000e+00
286 289       0.0000000000000000e+00
286 290       0.0000000000000000e+00
286 291       0.0000000000000000e+00
286 301       0.0000000000000000e+00
286 302       0.0000000000000000e+00
286 303       0.0000000000000000e+00
286 304       0.0000000000000000e+00
286 305       0.0000000000000000e+00
286 306       0.0000000000000000e+00
286 331       0.0000000000000000e+00
286 332       0.0000000000000000e+00
286 333       0.0000000000000000e+00
286 334       0.0000000000000000e+00
286 335       0.0000000000000000e+00
286 336       0.0000000000000000e+00
286 346       0.0000000000000000e+00
286 347       0.0000000000000000e+00
286 348       0.0000000000000000e+00
286 349       0.0000000000000000e+00
286 350       0.0000000000000000e+00
286 351       0.0000000000000000e+00
286 361       0.0000000000000000e+00
286 362       0.0000000000000000e+00
286 363       0.0000000000000000e+00
286 364       0.0000000000000000e+00
286 365       0.0000000000000000e+00
286 366       0.0000000000000000e+00
286 388       0.0000000000000000e+00
286 389       0.0000000000000000e+00
286 390       0.0000000000000000e+00
286 391       0.0000000000000000e+00
286 392       0.0000000000000000e+00
286 393       0.0000000000000000e+00
286 397       0.0000000000000000e+00
286 398       0.0000000000000000e+00
286 399       0.0000000000000000e+00
286 400       0.0000000000000000e+00
286 401       0.0000000000000000e+00
286 402       0.0000000000000000e+00
286 415       0.0000000000000000e+00
286 416       0.0000000000000000e+00
286 417       0.0000000000000000e+00
286 418       0.0000000000000000e+00
286 419       0.0000000000000000e+00
286 420       0.0000000000000000e+00
286 424       0.0000000000000000e+00
286 425       0.0000000000000000e+00
286 426       0.0000000000000000e+00
286 427       0.0000000000000000e+00
286 428       0.0000000000000000e+00
286 429       0.0000000000000000e+00
286 442       0.0000000000000000e+00
286 443       0.0000000000000000e+00
286 444       0.0000000000000000e+00
286 445       0.0000000000000000e+00
286 446       0.0000000000000000e+00
286 447       0.0000000000000000e+00
286 451       0.0000000000000000e+00
286 452       0.0000000000000000e+00
286 453       0.0000000000000000e+00
286 454       0.0000000000000000e+00
286 455       0.0000000000000000e+00
286 456       0.0000000000000000e+00
287 287       0.0000000000000000e+00
287 211       0.0000000000000000e+00
287 212       0.0000000000000000e+00
287 213       0.0000000000000000e+00
287 214       0.0000000000000000e+00
287 215       0.0000000000000000e+00
287 216       0.0000000000000000e+00
287 226       0.0000000000000000e+00
287 227       0.0000000000000000e+00
287 228       0.0000000000000000e+00
287 229       0.0000000000000000e+00
287 230       0.0000000000000000e+00
287 231       0.0000000000000000e+00
287 241       0.0000000000000000e+00
287 242       0.0000000000000000e+00
287 243       0.0000000000000000e+00
287 244       0.0000000000000000e+00
287 245       0.0000000000000000e+00
287 246       0.0000000000000000e+00
287 271       0.0000000000000000e+00
287 272       0.0000000000000000e+00
287 273       0.0000000000000000e+00
287 274       0.0000000000000000e+00
287 275       0.0000000000000000e+00
287 276       0.0000000000000000e+00
287 286       0.0000000000000000e+00
287 288       0.0000000000000000e+00
287 289       0.0000000000000000e+00
287 290       0.0000000000000000e+00
287 291       0.0000000000000000e+00
287 301       0.0000000000000000e+00
287 302       0.0000000000000000e+00
287 303       0.0000000000000000e+00
287 304       0.0000000000000000e+00
287 305       0.0000000000000000e+00
287 306       0.0000000000000000e+00
287 331       0.0000000000000000e+00
287 332       0.0000000000000000e+00
287 333       0.0000000000000000e+00
287 334       0.0000000000000000e+00
287 335       0.0000000000000000e+00
287 336       0.0000000000000000e+00
287 346       0.0000000000000000e+00
287 347       0.0000000000000000e+00
287 348       0.0000000000000000e+00
287 349       0.0000000000000000e+00
287 350       0.0000000000000000e+00
287 351       0.0000000000000000e+00
287 361       0.0000000000000000e+00
287 362       0.0000000000000000e+00
287 363       0.0000000000000000e+00
287 364       0.0000000000000000e+00
287 365       0.0000000000000000e+00
287 366       0.0000000000000000e+00
287 388       0.0000000000000000e+00
287 389       0.0000000000000000e+00
287 390       0.0000000000000000e+00
287 391       0.0000000000000000e+00
287 392       0.0000000000000000e+00
287 393       0.0000000000000000e+00
287 397       0.0000000000000000e+00
287 398       0.0000000000000000e+00
287 399       0.0000000000000000e+00
287 400       0.0000000000000000e+00
287 401       0.0000000000000000e+00
287 402       0.0000000000000000e+00
287 415       0.0000000000000000e+00
287 416       0.0000000000000000e+00
287 417       0.0000000000000000e+00
287 418       0.0000000000000000e+00
287 419       0.0000000000000000e+00
287 420       0.0000000000000000e+00
287 424       0.0000000000000000e+00
287 425       0.0000000000000000e+00
287 426       0.0000000000000000e+00
287 427       0.0000000000000000e+00
287 428       0.0000000000000000e+00
287 429       0.0000000000000000e+00
287 442       0.0000000000000000e+00
287 443       0.0000000000000000e+00
287 444       0.0000000000000000e+00
287 445       0.0000000000000000e+00
287 446       0.0000000000000000e+00
287 447       0.0000000000000000e+00
287 451       0.0000000000000000e+00
287 452       0.0000000000000000e+00
287 453       0.0000000000000000e+00
287 454       0.0000000000000000e+00
287 455       0.0000000000000000e+00
287 456       0.0000000000000000e+00
288 288       0.0000000000000000e+00
288 211       0.0000000000000000e+00
288 212       0.0000000000000000e+00
288 213       0.0000000000000000e+00
288 214       0.0000000000000000e+00
288 215       0.0000000000000000e+00
288 216       0.0000000000000000e+00
288 226       0.0000000000000000e+00
288 227       0.0000000000000000e+00
288 228       0.0000000000000000e+00
288 229       0.0000000000000000e+00
288 230       0.0000000000000000e+00
288 231       0.0000000000000000e+00
288 241       0.0000000000000000e+00
288 242       0.0000000000000000e+00
288 243       0.0000000000000000e+00
288 244       0.0000000000000000e+00
288 245       0.0000000000000000e+00
288 246       0.0000000000000000e+00
288 271       0.0000000000000000e+00
288 272       0.0000000000000000e+00
288 273       0.0000000000000000e+00
288 274       0.0000000000000000e+00
288 275       0.0000000000000000e+00
288 276       0.0000000000000000e+00
288 286       0.0000000000000000e+00
288 287       0.0000000000000000e+00
288 289       0.0000000000000000e+00
288 290       0.0000000000000000e+00
288 291       0.0000000000000000e+00
288 301       0.0000000000000000e+00
288 302       0.0000000000000000e+00
288 303       0.0000000000000000e+00
288 304       0.0000000000000000e+00
288 305       0.0000000000000000e+00
288 306       0.0000000000000000e+00
288 331       0.0000000000000000e+00
288 332       0.0000000000000000e+00
288 333       0.0000000000000000e+00
288 334       0.0000000000000000e+00
288 335       0.0000000000000000e+00
288 336       0.0000000000000000e+00
288 346       0.0000000000000000e+00
288 347       0.0000000000000000e+00
288 348       0.0000000000000000e+00
288 349       0.0000000000000000e+00
288 350       0.0000000000000000e+00
288 351       0.0000000000000000e+00
288 361       0.0000000000000000e+00
288 362       0.0000000000000000e+00
288 363       0.0000000000000000e+00
288 364       0.0000000000000000e+00
288 365       0.0000000000000000e+00
288 366       0.0000000000000000e+00
288 388       0.0000000000000000e+00
288 389       0.0000000000000000e+00
288 390       0.0000000000000000e+00
288 391       0.0000000000000000e+00
288 392       0.0000000000000000e+00
288 393       0.0000000000000000e+00
288 397       0.0000000000000000e+00
288 398       0.0000000000000000e+00
288 399       0.0000000000000000e+00
288 400       0.0000000000000000e+00
288 401       0.0000000000000000e+00
288 402       0.0000000000000000e+00
288 415       0.0000000000000000e+00
288 416       0.0000000000000000e+00
288 417       0.0000000000000000e+00
288 418       0.0000000000000000e+00
288 419       0.0000000000000000e+00
288 420       0.0000000000000000e+00
288 424       0.0000000000000000e+00
288 425       0.0000000000000000e+00
288 426       0.0000000000000000e+00
288 427       0.0000000000000000e+00
288 428       0.0000000000000000e+00
288 429       0.0000000000000000e+00
288 442       0.0000000000000000e+00
288 443       0.0000000000000000e+00
288 444       0.0000000000000000e+00
288 445       0.0000000000000000e+00
288 446       0.0000000000000000e+00
288 447       0.0000000000000000e+00
288 451       0.0000000000000000e+00
288 452       0.0000000000000000e+00
288 453       0.0000000000000000e+00
288 454       0.0000000000000000e+00
288 455       0.0000000000000000e+00
288 456       0.0000000000000000e+00
289 289       0.0000000000000000e+00
289 211       0.0000000000000000e+00
289 212       0.0000000000000000e+00
289 213       0.0000000000000000e+00
289 214       0.0000000000000000e+00
289 215       0.0000000000000000e+00
289 216       0.0000000000000000e+00
289 217       0.0000000000000000e+00
289 218       0.0000000000000000e+00
289 219       0.0000000000000000e+00
289 226       0.0000000000000000e+00
289 227       0.0000000000000000e+00
289 228       0.0000000000000000e+00
289 229       0.0000000000000000e+00
289 230       0.0000000000000000e+00
289 231       0.0000000000000000e+00
289 232       0.0000000000000000e+00
289 233       0.0000000000000000e+00
289 234       0.0000000000000000e+00
289 241       0.0000000000000000e+00
289 242       0.0000000000000000e+00
289 243       0.0000000000000000e+00
289 244       0.0000000000000000e+00
289 245       0.0000000000000000e+00
289 246       0.0000000000000000e+00
289 247       0.0000000000000000e+00
289 248       0.0000000000000000e+00
289 249       0.0000000000000000e+00
289 271       0.0000000000000000e+00
289 272       0.0000000000000000e+00
289 273       0.0000000000000000e+00
289 274       0.0000000000000000e+00
289 275       0.0000000000000000e+00
289 276       0.0000000000000000e+00
289 277       0.0000000000000000e+00
289 278       0.0000000000000000e+00
289 279       0.0000000000000000e+00
289 286       0.0000000000000000e+00
289 287       0.0000000000000000e+00
289 288       0.0000000000000000e+00
289 290       0.0000000000000000e+00
289 291       0.0000000000000000e+00
289 292       0.0000000000000000e+00
289 293       0.0000000000000000e+00
289 294       0.0000000000000000e+00
289 301       0.0000000000000000e+00
289 302       0.0000000000000000e+00
289 303       0.0000000000000000e+00
289 304       0.0000000000000000e+00
289 305       0.0000000000000000e+00
289 306       0.0000000000000000e+00
289 307       0.0000000000000000e+00
289 308       0.0000000000000000e+00
289 309       0.0000000000000000e+00
289 331       0.0000000000000000e+00
289 332       0.0000000000000000e+00
289 333       0.0000000000000000e+00
289 334       0.0000000000000000e+00
289 335       0.0000000000000000e+00
289 336       0.0000000000000000e+00
289 337       0.0000000000000000e+00
289 338       0.0000000000000000e+00
289 339       0.0000000000000000e+00
289 346       0.0000000000000000e+00
289 347       0.0000000000000000e+00
289 348       0.0000000000000000e+00
289 349       0.0000000000000000e+00
289 350       0.0000000000000000e+00
289 351       0.0000000000000000e+00
289 352       0.0000000000000000e+00
289 353       0.0000000000000000e+00
289 354       0.0000000000000000e+00
289 361       0.0000000000000000e+00
289 362       0.0000000000000000e+00
289 363       0.0000000000000000e+00
289 364       0.0000000000000000e+00
289 365       0.0000000000000000e+00
289 366       0.0000000000000000e+00
289 367       0.0000000000000000e+00
289 368       0.0000000000000000e+00
289 369       0.0000000000000000e+00
289 415       0.0000000000000000e+00
289 416       0.0000000000000000e+00
289 417       0.0000000000000000e+00
289 418       0.0000000000000000e+00
289 419       0.0000000000000000e+00
289 420       0.0000000000000000e+00
289 424       0.0000000000000000e+00
289 425       0.0000000000000000e+00
289 426       0.0000000000000000e+00
289 427       0.0000000000000000e+00
289 428       0.0000000000000000e+00
289 429       0.0000000000000000e+00
290 290       0.0000000000000000e+00
290 211       0.0000000000000000e+00
290 212       0.0000000000000000e+00
290 213       0.0000000000000000e+00
290 214       0.0000000000000000e+00
290 215       0.0000000000000000e+00
290 216       0.0000000000000000e+00
290 217       0.0000000000000000e+00
290 218       0.0000000000000000e+00
290 219       0.0000000000000000e+00
290 226       0.0000000000000000e+00
290 227       0.0000000000000000e+00
290 228       0.0000000000000000e+00
290 229       0.0000000000000000e+00
290 230       0.0000000000000000e+00
290 231       0.0000000000000000e+00
290 232       0.0000000000000000e+00
290 233       0.0000000000000000e+00
290 234       0.0000000000000000e+00
290 241       0.0000000000000000e+00
290 242       0.0000000000000000e+00
290 243       0.0000000000000000e+00
290 244       0.0000000000000000e+00
290 245       0.0000000000000000e+00
290 246       0.0000000000000000e+00
290 247       0.0000000000000000e+00
290 248       0.0000000000000000e+00
290 249       0.0000000000000000e+00
290 271       0.0000000000000000e+00
290 272       0.0000000000000000e+00
290 273       0.0000000000000000e+00
290 274       0.0000000000000000e+00
290 275       0.0000000000000000e+00
290 276       0.0000000000000000e+00
290 277       0.0000000000000000e+00
290 278       0.0000000000000000e+00
290 279       0.0000000000000000e+00
290 286       0.0000000000000000e+00
290 287       0.0000000000000000e+00
290 288       0.0000000000000000e+00
290 289       0.0000000000000000e+00
290 291       0.0000000000000000e+00
290 292       0.0000000000000000e+00
290 293       0.0000000000000000e+00
290 294       0.0000000000000000e+00
290 301       0.0000000000000000e+00
290 302       0.0000000000000000e+00
290 303       0.0000000000000000e+00
290 304       0.0000000000000000e+00
290 305       0.0000000000000000e+00
290 306       0.0000000000000000e+00
290 307       0.0000000000000000e+00
290 308       0.0000000000000000e+00
290 309       0.0000000000000000e+00
290 331       0.0000000000000000e+00
290 332       0.0000000000000000e+00
290 333       0.0000000000000000e+00
290 334       0.0000000000000000e+00
290 335       0.0000000000000000e+00
290 336       0.0000000000000000e+00
290 337       0.0000000000000000e+00
290 338       0.0000000000000000e+00
290 339       0.0000000000000000e+00
290 346       0.0000000000000000e+00
290 347       0.0000000000000000e+00
290 348       0.0000000000000000e+00
290 349       0.0000000000000000e+00
290 350       0.0000000000000000e+00
290 351       0.0000000000000000e+00
290 352       0.0000000000000000e+00
290 353       0.0000000000000000e+00
290 354       0.0000000000000000e+00
290 361       0.0000000000000000e+00
290 362       0.0000000000000000e+00
290 363       0.0000000000000000e+00
290 364       0.0000000000000000e+00
290 365       0.0000000000000000e+00
290 366       0.0000000000000000e+00
290 367       0.0000000000000000e+00
290 368       0.0000000000000000e+00
290 369       0.0000000000000000e+00
290 415       0.0000000000000000e+00
290 416       0.0000000000000000e+00
290 417       0.0000000000000000e+00
290 418       0.0000000000000000e+00
290 419       0.0000000000000000e+00
290 420       0.0000000000000000e+00
290 424       0.0000000000000000e+00
290 425       0.0000000000000000e+00
290 426       0.0000000000000000e+00
290 427       0.0000000000000000e+00
290 428       0.0000000000000000e+00
290 429       0.0000000000000000e+00
291 291       0.0000000000000000e+00
291 211       0.0000000000000000e+00
291 212       0.0000000000000000e+00
291 213       0.0000000000000000e+00
291 214       0.0000000000000000e+00
291 215       0.0000000000000000e+00
291 216       0.0000000000000000e+00
291 217       0.0000000000000000e+00
291 218       0.0000000000000000e+00
291 219       0.0000000000000000e+00
291 226       0.0000000000000000e+00
291 227       0.0000000000000000e+00
291 228       0.0000000000000000e+00
291 229       0.0000000000000000e+00
291 230       0.0000000000000000e+00
291 231       0.0000000000000000e+00
291 232       0.0000000000000000e+00
291 233       0.0000000000000000e+00
291 234       0.0000000000000000e+00
291 241       0.0000000000000000e+00
291 242       0.0000000000000000e+00
291 243       0.0000000000000000e+00
291 244       0.0000000000000000e+00
291 245       0.0000000000000000e+00
291 246       0.0000000000000000e+00
291 247       0.0000000000000000e+00
291 248       0.0000000000000000e+00
291 249       0.0000000000000000e+00
291 271       0.0000000000000000e+00
291 272       0.0000000000000000e+00
291 273       0.0000000000000000e+00
291 274       0.0000000000000000e+00
291 275       0.0000000000000000e+00
291 276       0.0000000000000000e+00
291 277       0.0000000000000000e+00
291 278       0.0000000000000000e+00
291 279       0.0000000000000000e+00
291 286       0.0000000000000000e+00
291 287       0.0000000000000000e+00
291 288       0.0000000000000000e+00
291 289       0.0000000000000000e+00
291 290       0.0000000000000000e+00
291 292       0.0000000000000000e+00
291 293       0.0000000000000000e+00
291 294       0.0000000000000000e+00
291 301       0.0000000000000000e+00
291 302       0.0000000000000000e+00
291 303       0.0000000000000000e+00
291 304       0.0000000000000000e+00
291 305       0.0000000000000000e+00
291 306       0.0000000000000000e+00
291 307       0.0000000000000000e+00
291 308       0.0000000000000000e+00
291 309       0.0000000000000000e+00
291 331       0.0000000000000000e+00
291 332       0.0000000000000000e+00
291 333       0.0000000000000000e+00
291 334       0.0000000000000000e+00
291 335       0.0000000000000000e+00
291 336       0.0000000000000000e+00
291 337       0.0000000000000000e+00
291 338       0.0000000000000000e+00
291 339       0.0000000000000000e+00
291 346       0.0000000000000000e+00
291 347       0.0000000000000000e+00
291 348       0.0000000000000000e+00
291 349       0.0000000000000000e+00
291 350       0.0000000000000000e+00
291 351       0.0000000000000000e+00
291 352       0.0000000000000000e+00
291 353       0.0000000000000000e+00
291 354       0.0000000000000000e+00
291 361       0.0000000000000000e+00
291 362       0.0000000000000000e+00
291 363       0.0000000000000000e+00
291 364       0.0000000000000000e+00
291 365       0.0000000000000000e+00
291 366       0.0000000000000000e+00
291 367       0.0000000000000000e+00
291 368       0.0000000000000000e+00
291 369       0.0000000000000000e+00
291 415       0.0000000000000000e+00
291 416       0.0000000000000000e+00
291 417       0.0000000000000000e+00
291 418       0.0000000000000000e+00
291 419       0.0000000000000000e+00
291 420       0.0000000000000000e+00
291 424       0.0000000000000000e+00
291 425       0.0000000000000000e+00
291 426       0.0000000000000000e+00
291 427       0.0000000000000000e+00
291 428       0.0000000000000000e+00
291 429       0.0000000000000000e+00
292 292       0.0000000000000000e+00
292 214       0.0000000000000000e+00
292 215       0.0000000000000000e+00
292 216       0.0000000000000000e+00
292 217       0.0000000000000000e+00
292 218       0.0000000000000000e+00
292 219       0.0000000000000000e+00
292 220       0.0000000000000000e+00
292 221       0.0000000000000000e+00
292 222       0.0000000000000000e+00
292 229       0.0000000000000000e+00
292 230       0.0000000000000000e+00
292 231       0.0000000000000000e+00
292 232       0.0000000000000000e+00
292 233       0.0000000000000000e+00
292 234       0.0000000000000000e+00
292 235       0.0000000000000000e+00
292 236       0.0000000000000000e+00
292 237       0.0000000000000000e+00
292 244       0.0000000000000000e+00
292 245       0.0000000000000000e+00
292 246       0.0000000000000000e+00
292 247       0.0000000000000000e+00
292 248       0.0000000000000000e+00
292 249       0.0000000000000000e+00
292 250       0.0000000000000000e+00
292 251       0.0000000000000000e+00
292 252       0.0000000000000000e+00
292 274       0.0000000000000000e+00
292 275       0.0000000000000000e+00
292 276       0.0000000000000000e+00
292 277       0.0000000000000000e+00
292 278       0.0000000000000000e+00
292 279       0.0000000000000000e+00
292 280       0.0000000000000000e+00
292 281       0.0000000000000000e+00
292 282       0.0000000000000000e+00
292 289       0.0000000000000000e+00
292 290       0.0000000000000000e+00
292 291       0.0000000000000000e+00
292 293       0.0000000000000000e+00
292 294       0.0000000000000000e+00
292 295       0.0000000000000000e+00
292 296       0.0000000000000000e+00
292 297       0.0000000000000000e+00
292 304       0.0000000000000000e+00
292 305       0.0000000000000000e+00
292 306       0.0000000000000000e+00
292 307       0.0000000000000000e+00
292 308       0.0000000000000000e+00
292 309       0.0000000000000000e+00
292 310       0.0000000000000000e+00
292 311       0.0000000000000000e+00
292 312       0.0000000000000000e+00
292 334       0.0000000000000000e+00
292 335       0.0000000000000000e+00
292 336       0.0000000000000000e+00
292 337       0.0000000000000000e+00
292 338       0.0000000000000000e+00
292 339       0.0000000000000000e+00
292 340       0.0000000000000000e+00
292 341       0.0000000000000000e+00
292 342       0.0000000000000000e+00
292 349       0.0000000000000000e+00
292 350       0.0000000000000000e+00
292 351       0.0000000000000000e+00
292 352       0.0000000000000000e+00
292 353       0.0000000000000000e+00
292 354       0.0000000000000000e+00
292 355       0.0000000000000000e+00
292 356       0.0000000000000000e+00
292 357       0.0000000000000000e+00
292 364       0.0000000000000000e+00
292 365       0.0000000000000000e+00
292 366       0.0000000000000000e+00
292 367       0.0000000000000000e+00
292 368       0.0000000000000000e+00
292 369       0.0000000000000000e+00
292 370       0.0000000000000000e+00
292 371       0.0000000000000000e+00
292 372       0.0000000000000000e+00
293 293       0.0000000000000000e+00
293 214       0.0000000000000000e+00
293 215       0.0000000000000000e+00
293 216       0.0000000000000000e+00
293 217       0.0000000000000000e+00
293 218       0.0000000000000000e+00
293 219       0.0000000000000000e+00
293 220       0.0000000000000000e+00
293 221       0.0000000000000000e+00
293 222       0.0000000000000000e+00
293 229       0.0000000000000000e+00
293 230       0.0000000000000000e+00
293 231       0.0000000000000000e+00
293 232       0.0000000000000000e+00
293 233       0.0000000000000000e+00
293 234       0.0000000000000000e+00
293 235       0.0000000000000000e+00
293 236       0.0000000000000000e+00
293 237       0.0000000000000000e+00
293 244       0.0000000000000000e+00
293 245       0.0000000000000000e+00
293 246       0.0000000000000000e+00
293 247       0.0000000000000000e+00
293 248       0.0000000000000000e+00
293 249       0.0000000000000000e+00
293 250       0.0000000000000000e+00
293 251       0.0000000000000000e+00
293 252       0.0000000000000000e+00
293 274       0.0000000000000000e+00
293 275       0.0000000000000000e+00
293 276       0.0000000000000000e+00
293 277       0.0000000000000000e+00
293 278       0.0000000000000000e+00
293 279       0.0000000000000000e+00
293 280       0.0000000000000000e+00
293 281       0.0000000000000000e+00
293 282       0.0000000000000000e+00
293 289       0.0000000000000000e+00
293 290       0.0000000000000000e+00
293 291       0.0000000000000000e+00
293 292       0.0000000000000000e+00
293 294       0.0000000000000000e+00
293 295       0.0000000000000000e+00
293 296       0.0000000000000000e+00
293 297       0.0000000000000000e+00
293 304       0.0000000000000000e+00
293 305       0.0000000000000000e+00
293 306       0.0000000000000000e+00
293 307       0.0000000000000000e+00
293 308       0.0000000000000000e+00
293 309       0.0000000000000000e+00
293 310       0.0000000000000000e+00
293 311       0.0000000000000000e+00
293 312       0.0000000000000000e+00
293 334       0.0000000000000000e+00
293 335       0.0000000000000000e+00
293 336       0.0000000000000000e+00
293 337       0.0000000000000000e+00
293 338       0.0000000000000000e+00
293 339       0.0000000000000000e+00
293 340       0.0000000000000000e+00
293 341       0.0000000000000000e+00
293 342       0.0000000000000000e+00
293 349       0.0000000000000000e+00
293 350       0.0000000000000000e+00
293 351       0.0000000000000000e+00
293 352       0.0000000000000000e+00
293 353       0.0000000000000000e+00
293 354       0.0000000000000000e+00
293 355       0.0000000000000000e+00
293 356       0.0000000000000000e+00
293 357       0.0000000000000000e+00
293 364       0.0000000000000000e+00
293 365       0.0000000000000000e+00
293 366       0.0000000000000000e+00
293 367       0.0000000000000000e+00
293 368       0.0000000000000000e+00
293 369       0.0000000000000000e+00
293 370       0.0000000000000000e+00
293 371       0.0000000000000000e+00
293 372       0.0000000000000000e+00
294 294       0.0000000000000000e+00
294 214       0.0000000000000000e+00
294 215       0.0000000000000000e+00
294 216       0.0000000000000000e+00
294 217       0.0000000000000000e+00
294 218       0.0000000000000000e+00
294 219       0.0000000000000000e+00
294 220       0.0000000000000000e+00
294 221       0.0000000000000000e+00
294 222       0.0000000000000000e+00
294 229       0.0000000000000000e+00
294 230       0.0000000000000000e+00
294 231       0.0000000000000000e+00
294 232       0.0000000000000000e+00
294 233       0.0000000000000000e+00
294 234       0.0000000000000000e+00
294 235       0.0000000000000000e+00
294 236       0.0000000000000000e+00
294 237       0.0000000000000000e+00
294 244       0.0000000000000000e+00
294 245       0.0000000000000000e+00
294 246       0.0000000000000000e+00
294 247       0.0000000000000000e+00
294 248       0.0000000000000000e+00
294 249       0.0000000000000000e+00
294 250       0.0000000000000000e+00
294 251       0.0000000000000000e+00
294 252       0.0000000000000000e+00
294 274       0.0000000000000000e+00
294 275       0.0000000000000000e+00
294 276       0.0000000000000000e+00
294 277       0.0000000000000000e+00
294 278       0.0000000000000000e+00
294 279       0.0000000000000000e+00
294 280       0.0000000000000000e+00
294 281       0.0000000000000000e+00
294 282       0.0000000000000000e+00
294 289       0.0000000000000000e+00
294 290       0.0000000000000000e+00
294 291       0.0000000000000000e+00
294 292       0.0000000000000000e+00
294 293       0.0000000000000000e+00
294 295       0.0000000000000000e+00
294 296       0.0000000000000000e+00
294 297       0.0000000000000000e+00
294 304       0.0000000000000000e+00
294 305       0.0000000000000000e+00
294 306       0.0000000000000000e+00
294 307       0.0000000000000000e+00
294 308       0.0000000000000000e+00
294 309       0.0000000000000000e+00
294 310       0.0000000000000000e+00
294 311       0.0000000000000000e+00
294 312       0.0000000000000000e+00
294 334       0.0000000000000000e+00
294 335       0.0000000000000000e+00
294 336       0.0000000000000000e+00
294 337       0.0000000000000000e+00
294 338       0.0000000000000000e+00
294 339       0.0000000000000000e+00
294 340       0.0000000000000000e+00
294 341       0.0000000000000000e+00
294 342       0.0000000000000000e+00
294 349       0.0000000000000000e+00
294 350       0.0000000000000000e+00
294 351       0.0000000000000000e+00
294 352       0.0000000000000000e+00
294 353       0.0000000000000000e+00
294 354       0.0000000000000000e+00
294 355       0.0000000000000000e+00
294 356       0.0000000000000000e+00
294 357       0.0000000000000000e+00
294 364       0.0000000000000000e+00
294 365       0.0000000000000000e+00
294 366       0.0000000000000000e+00
294 367       0.0000000000000000e+00
294 368       0.0000000000000000e+00
294 369       0.0000000000000000e+00
294 370       0.0000000000000000e+00
294 371       0.0000000000000000e+00
294 372       0.0000000000000000e+00
295 295       0.0000000000000000e+00
295 217       0.0000000000000000e+00
295 218       0.0000000000000000e+00
295 219       0.0000000000000000e+00
295 220       0.0000000000000000e+00
295 221       0.0000000000000000e+00
295 222       0.0000000000000000e+00
295 223       0.0000000000000000e+00
295 224       0.0000000000000000e+00
295 225       0.0000000000000000e+00
295 232       0.0000000000000000e+00
295 233       0.0000000000000000e+00
295 234       0.0000000000000000e+00
295 235       0.0000000000000000e+00
295 236       0.0000000000000000e+00
295 237       0.0000000000000000e+00
295 238       0.0000000000000000e+00
295 239       0.0000000000000000e+00
295 240       0.0000000000000000e+00
295 247       0.0000000000000000e+00
295 248       0.0000000000000000e+00
295 249       0.0000000000000000e+00
295 250       0.0000000000000000e+00
295 251       0.0000000000000000e+00
295 252       0.0000000000000000e+00
295 253       0.0000000000000000e+00
295 254       0.0000000000000000e+00
295 255       0.0000000000000000e+00
295 277       0.0000000000000000e+00
295 278       0.0000000000000000e+00
295 279       0.0000000000000000e+00
295 280       0.0000000000000000e+00
295 281       0.0000000000000000e+00
295 282       0.0000000000000000e+00
295 283       0.0000000000000000e+00
295 284       0.0000000000000000e+00
295 285       0.0000000000000000e+00
295 292       0.0000000000000000e+00
295 293       0.0000000000000000e+00
295 294       0.0000000000000000e+00
295 296       0.0000000000000000e+00
295 297       0.0000000000000000e+00
295 298       0.0000000000000000e+00
295 299       0.0000000000000000e+00
295 300       0.0000000000000000e+00
295 307       0.0000000000000000e+00
295 308       0.0000000000000000e+00
295 309       0.0000000000000000e+00
295 310       0.0000000000000000e+00
295 311       0.0000000000000000e+00
295 312       0.0000000000000000e+00
295 313       0.0000000000000000e+00
295 314       0.0000000000000000e+00
295 315       0.0000000000000000e+00
295 337       0.0000000000000000e+00
295 338       0.0000000000000000e+00
295 339       0.0000000000000000e+00
295 340       0.0000000000000000e+00
295 341       0.0000000000000000e+00
295 342       0.0000000000000000e+00
295 343       0.0000000000000000e+00
295 344       0.0000000000000000e+00
295 345       0.0000000000000000e+00
295 352       0.0000000000000000e+00
295 353       0.0000000000000000e+00
295 354       0.0000000000000000e+00
295 355       0.0000000000000000e+00
295 356       0.0000000000000000e+00
295 357       0.0000000000000000e+00
295 358       0.0000000000000000e+00
295 359       0.0000000000000000e+00
295 360       0.0000000000000000e+00
295 367       0.0000000000000000e+00
295 368       0.0000000000000000e+00
295 369       0.0000000000000000e+00
295 370       0.0000000000000000e+00
295 371       0.0000000000000000e+00
295 372       0.0000000000000000e+00
295 373       0.0000000000000000e+00
295 374       0.0000000000000000e+00
295 375       0.0000000000000000e+00
296 296       0.0000000000000000e+00
296 217       0.0000000000000000e+00
296 218       0.0000000000000000e+00
296 219       0.0000000000000000e+00
296 220       0.0000000000000000e+00
296 221       0.0000000000000000e+00
296 222       0.0000000000000000e+00
296 223       0.0000000000000000e+00
296 224       0.0000000000000000e+00
296 225       0.0000000000000000e+00
296 232       0.0000000000000000e+00
296 233       0.0000000000000000e+00
296 234       0.0000000000000000e+00
296 235       0.0000000000000000e+00
296 236       0.0000000000000000e+00
296 237       0.0000000000000000e+00
296 238       0.0000000000000000e+00
296 239       0.0000000000000000e+00
296 240       0.0000000000000000e+00
296 247       0.0000000000000000e+00
296 248       0.0000000000000000e+00
296 249       0.0000000000000000e+00
296 250       0.0000000000000000e+00
296 251       0.0000000000000000e+00
296 252       0.0000000000000000e+00
296 253       0.0000000000000000e+00
296 254       0.0000000000000000e+00
296 255       0.0000000000000000e+00
296 277       0.0000000000000000e+00
296 278       0.0000000000000000e+00
296 279       0.0000000000000000e+00
296 280       0.0000000000000000e+00
296 281       0.0000000000000000e+00
296 282       0.0000000000000000e+00
296 283       0.0000000000000000e+00
296 284       0.0000000000000000e+00
296 285       0.0000000000000000e+00
296 292       0.0000000000000000e+00
296 293       0.0000000000000000e+00
296 294       0.0000000000000000e+00
296 295       0.0000000000000000e+00
296 297       0.0000000000000000e+00
296 298       0.0000000000000000e+00
296 299       0.0000000000000000e+00
296 300       0.0000000000000000e+00
296 307       0.0000000000000000e+00
296 308       0.0000000000000000e+00
296 309       0.0000000000000000e+00
296 310       0.0000000000000000e+00
296 311       0.0000000000000000e+00
296 312       0.0000000000000000e+00
296 313       0.0000000000000000e+00
296 314       0.0000000000000000e+00
296 315       0.0000000000000000e+00
296 337       0.0000000000000000e+00
296 338       0.0000000000000000e+00
296 339       0.0000000000000000e+00
296 340       0.0000000000000000e+00
296 341       0.0000000000000000e+00
296 342       0.0000000000000000e+00
296 343       0.0000000000000000e+00
296 344       0.0000000000000000e+00
296 345       0.0000000000000000e+00
296 352       0.0000000000000000e+00
296 353       0.0000000000000000e+00
296 354       0.0000000000000000e+00
296 355       0.0000000000000000e+00
296 356       0.0000000000000000e+00
296 357       0.0000000000000000e+00
296 358       0.0000000000000000e+00
296 359       0.0000000000000000e+00
296 360       0.0000000000000000e+00
296 367       0.0000000000000000e+00
296 368       0.0000000000000000e+00
296 369       0.0000000000000000e+00
296 370       0.0000000000000000e+00
296 371       0.0000000000000000e+00
296 372       0.0000000000000000e+00
296 373       0.0000000000000000e+00
296 374       0.0000000000000000e+00
296 375       0.0000000000000000e+00
297 297       0.0000000000000000e+00
297 217       0.0000000000000000e+00
297 218       0.0000000000000000e+00
297 219       0.0000000000000000e+00
297 220       0.0000000000000000e+00
297 221       0.0000000000000000e+00
297 222       0.0000000000000000e+00
297 223       0.0000000000000000e+00
297 224       0.0000000000000000e+00
297 225       0.0000000000000000e+00
297 232       0.0000000000000000e+00
297 233       0.0000000000000000e+00
297 234       0.0000000000000000e+00
297 235       0.0000000000000000e+00
297 236       0.0000000000000000e+00
297 237       0.0000000000000000e+00
297 238       0.0000000000000000e+00
297 239       0.0000000000000000e+00
297 240       0.0000000000000000e+00
297 247       0.0000000000000000e+00
297 248       0.0000000000000000e+00
297 249       0.0000000000000000e+00
297 250       0.0000000000000000e+00
297 251       0.0000000000000000e+00
297 252       0.0000000000000000e+00
297 253       0.0000000000000000e+00
297 254       0.0000000000000000e+00
297 255       0.0000000000000000e+00
297 277       0.0000000000000000e+00
297 278       0.0000000000000000e+00
297 279       0.0000000000000000e+00
297 280       0.0000000000000000e+00
297 281       0.0000000000000000e+00
297 282       0.0000000000000000e+00
297 283       0.0000000000000000e+00
297 284       0.0000000000000000e+00
297 285       0.0000000000000000e+00
297 292       0.0000000000000000e+00
297 293       0.0000000000000000e+00
297 294       0.0000000000000000e+00
297 295       0.0000000000000000e+00
297 296       0.0000000000000000e+00
297 298       0.0000000000000000e+00
297 299       0.0000000000000000e+00
297 300       0.0000000000000000e+00
297 307       0.0000000000000000e+00
297 308       0.0000000000000000e+00
297 309       0.0000000000000000e+00
297 310       0.0000000000000000e+00
297 311       0.0000000000000000e+00
297 312       0.0000000000000000e+00
297 313       0.0000000000000000e+00
297 314       0.0000000000000000e+00
297 315       0.0000000000000000e+00
297 337       0.0000000000000000e+00
297 338       0.0000000000000000e+00
297 339       0.0000000000000000e+00
297 340       0.0000000000000000e+00
297 341       0.0000000000000000e+00
297 342       0.0000000000000000e+00
297 343       0.0000000000000000e+00
297 344       0.0000000000000000e+00
297 345       0.0000000000000000e+00
297 352       0.0000000000000000e+00
297 353       0.0000000000000000e+00
297 354       0.0000000000000000e+00
297 355       0.0000000000000000e+00
297 356       0.0000000000000000e+00
297 357       0.0000000000000000e+00
297 358       0.0000000000000000e+00
297 359       0.0000000000000000e+00
297 360       0.0000000000000000e+00
297 367       0.0000000000000000e+00
297 368       0.0000000000000000e+00
297 369       0.0000000000000000e+00
297 370       0.0000000000000000e+00
297 371       0.0000000000000000e+00
297 372       0.0000000000000000e+00
297 373       0.0000000000000000e+00
297 374       0.0000000000000000e+00
297 375       0.0000000000000000e+00
298 298       0.0000000000000000e+00
298 220       0.0000000000000000e+00
298 221       0.0000000000000000e+00
298 222       0.0000000000000000e+00
298 223       0.0000000000000000e+00
298 224       0.0000000000000000e+00
298 225       0.0000000000000000e+00
298 235       0.0000000000000000e+00
298 236       0.0000000000000000e+00
298 237       0.0000000000000000e+00
298 238       0.0000000000000000e+00
298 239       0.0000000000000000e+00
298 240       0.0000000000000000e+00
298 250       0.0000000000000000e+00
298 251       0.0000000000000000e+00
298 252       0.0000000000000000e+00
298 253       0.0000000000000000e+00
298 254       0.0000000000000000e+00
298 255       0.0000000000000000e+00
298 280       0.0000000000000000e+00
298 281       0.0000000000000000e+00
298 282       0.0000000000000000e+00
298 283       0.0000000000000000e+00
298 284       0.0000000000000000e+00
298 285       0.0000000000000000e+00
298 295       0.0000000000000000e+00
298 296       0.0000000000000000e+00
298 297       0.0000000000000000e+00
298 299       0.0000000000000000e+00
298 300       0.0000000000000000e+00
298 310       0.0000000000000000e+00
298 311       0.0000000000000000e+00
298 312       0.0000000000000000e+00
298 313       0.0000000000000000e+00
298 314       0.0000000000000000e+00
298 315       0.0000000000000000e+00
298 340       0.0000000000000000e+00
298 341       0.0000000000000000e+00
298 342       0.0000000000000000e+00
298 343       0.0000000000000000e+00
298 344       0.0000000000000000e+00
298 345       0.0000000000000000e+00
298 355       0.0000000000000000e+00
298 356       0.0000000000000000e+00
298 357       0.0000000000000000e+00
298 358       0.0000000000000000e+00
298 359       0.0000000000000000e+00
298 360       0.0000000000000000e+00
298 370       0.0000000000000000e+00
298 371       0.0000000000000000e+00
298 372       0.0000000000000000e+00
298 373       0.0000000000000000e+00
298 374       0.0000000000000000e+00
298 375       0.0000000000000000e+00
299 299       0.0000000000000000e+00
299 220       0.0000000000000000e+00
299 221       0.0000000000000000e+00
299 222       0.0000000000000000e+00
299 223       0.0000000000000000e+00
299 224       0.0000000000000000e+00
299 225       0.0000000000000000e+00
299 235       0.0000000000000000e+00
299 236       0.0000000000000000e+00
299 237       0.0000000000000000e+00
299 238       0.0000000000000000e+00
299 239       0.0000000000000000e+00
299 240       0.0000000000000000e+00
299 250       0.0000000000000000e+00
299 251       0.0000000000000000e+00
299 252       0.0000000000000000e+00
299 253       0.0000000000000000e+00
299 254       0.0000000000000000e+00
299 255       0.0000000000000000e+00
299 280       0.0000000000000000e+00
299 281       0.0000000000000000e+00
299 282       0.0000000000000000e+00
299 283       0.0000000000000000e+00
299 284       0.0000000000000000e+00
299 285       0.0000000000000000e+00
299 295       0.0000000000000000e+00
299 296       0.0000000000000000e+00
299 297       0.0000000000000000e+00
299 298       0.0000000000000000e+00
299 300       0.0000000000000000e+00
299 310       0.0000000000000000e+00
299 311       0.0000000000000000e+00
299 312       0.0000000000000000e+00
299 313       0.0000000000000000e+00
299 314       0.0000000000000000e+00
299 315       0.0000000000000000e+00
299 340       0.0000000000000000e+00
299 341       0.0000000000000000e+00
299 342       0.0000000000000000e+00
299 343       0.0000000000000000e+00
299 344       0.0000000000000000e+00
299 345       0.0000000000000000e+00
299 355       0.0000000000000000e+00
299 356       0.0000000000000000e+00
299 357       0.0000000000000000e+00
299 358       0.0000000000000000e+00
299 359       0.0000000000000000e+00
299 360       0.0000000000000000e+00
299 370       0.0000000000000000e+00
299 371       0.0000000000000000e+00
299 372       0.0000000000000000e+00
299 373       0.0000000000000000e+00
299 374       0.0000000000000000e+00
299 375       0.0000000000000000e+00
300 300       0.0000000000000000e+00
300 220       0.0000000000000000e+00
300 221       0.0000000000000000e+00
300 222       0.0000000000000000e+00
300 223       0.0000000000000000e+00
300 224       0.0000000000000000e+00
300 225       0.0000000000000000e+00
300 235       0.0000000000000000e+00
300 236       0.0000000000000000e+00
300 237       0.0000000000000000e+00
300 238       0.0000000000000000e+00
300 239       0.0000000000000000e+00
300 240       0.0000000000000000e+00
300 250       0.0000000000000000e+00
300 251       0.0000000000000000e+00
300 252       0.0000000000000000e+00
300 253       0.0000000000000000e+00
300 254       0.0000000000000000e+00
300 255       0.0000000000000000e+00
300 280       0.0000000000000000e+00
300 281       0.0000000000000000e+00
300 282       0.0000000000000000e+00
300 283       0.0000000000000000e+00
300 284       0.0000000000000000e+00
300 285       0.0000000000000000e+00
300 295       0.0000000000000000e+00
300 296       0.0000000000000000e+00
300 297       0.0000000000000000e+00
300 298       0.0000000000000000e+00
300 299       0.0000000000000000e+00
300 310       0.0000000000000000e+00
300 311       0.0000000000000000e+00
300 312       0.0000000000000000e+00
300 313       0.0000000000000000e+00
300 314       0.0000000000000000e+00
300 315       0.0000000000000000e+00
300 340       0.0000000000000000e+00
300 341       0.0000000000000000e+00
300 342       0.0000000000000000e+00
300 343       0.0000000000000000e+00
300 344       0.0000000000000000e+00
300 345       0.0000000000000000e+00
300 355       0.0000000000000000e+00
300 356       0.0000000000000000e+00
300 357       0.0000000000000000e+00
300 358       0.0000000000000000e+00
300 359       0.0000000000000000e+00
300 360       0.0000000000000000e+00
300 370       0.0000000000000000e+00
300 371       0.0000000000000000e+00
300 372       0.0000000000000000e+00
300 373       0.0000000000000000e+00
300 374       0.0000000000000000e+00
300 375       0.0000000000000000e+00
301 301       0.0000000000000000e+00
301 226       0.0000000000000000e+00
301 227       0.0000000000000000e+00
301 228       0.0000000000000000e+00
301 229       0.0000000000000000e+00
301 230       0.0000000000000000e+00
301 231       0.0000000000000000e+00
301 241       0.0000000000000000e+00
301 242       0.0000000000000000e+00
301 243       0.0000000000000000e+00
301 244       0.0000000000000000e+00
301 245       0.0000000000000000e+00
301 246       0.0000000000000000e+00
301 286       0.0000000000000000e+00
301 287       0.0000000000000000e+00
301 288       0.0000000000000000e+00
301 289       0.0000000000000000e+00
301 290       0.0000000000000000e+00
301 291       0.0000000000000000e+00
301 302       0.0000000000000000e+00
301 303       0.0000000000000000e+00
301 304       0.0000000000000000e+00
301 305       0.0000000000000000e+00
301 306       0.0000000000000000e+00
301 346       0.0000000000000000e+00
301 347       0.0000000000000000e+00
301 348       0.0000000000000000e+00
301 349       0.0000000000000000e+00
301 350       0.0000000000000000e+00
301 351       0.0000000000000000e+00
301 361       0.0000000000000000e+00
301 362       0.0000000000000000e+00
301 363       0.0000000000000000e+00
301 364       0.0000000000000000e+00
301 365       0.0000000000000000e+00
301 366       0.0000000000000000e+00
301 391       0.0000000000000000e+00
301 392       0.0000000000000000e+00
301 393       0.0000000000000000e+00
301 400       0.0000000000000000e+00
301 401       0.0000000000000000e+00
301 402       0.0000000000000000e+00
301 418       0.0000000000000000e+00
301 419       0.0000000000000000e+00
301 420       0.0000000000000000e+00
301 427       0.0000000000000000e+00
301 428       0.0000000000000000e+00
301 429       0.0000000000000000e+00
301 445       0.0000000000000000e+00
301 446       0.0000000000000000e+00
301 447       0.0000000000000000e+00
301 454       0.0000000000000000e+00
301 455       0.0000000000000000e+00
301 456       0.0000000000000000e+00
302 302       0.0000000000000000e+00
302 226       0.0000000000000000e+00
302 227       0.0000000000000000e+00
302 228       0.0000000000000000e+00
302 229       0.0000000000000000e+00
302 230       0.0000000000000000e+00
302 231       0.0000000000000000e+00
302 241       0.0000000000000000e+00
302 242       0.0000000000000000e+00
302 243       0.0000000000000000e+00
302 244       0.0000000000000000e+00
302 245       0.0000000000000000e+00
302 246       0.0000000000000000e+00
302 286       0.0000000000000000e+00
302 287       0.0000000000000000e+00
302 288       0.0000000000000000e+00
302 289       0.0000000000000000e+00
302 290       0.0000000000000000e+00
302 291       0.0000000000000000e+00
302 301       0.0000000000000000e+00
302 303       0.0000000000000000e+00
302 304       0.0000000000000000e+00
302 305       0.0000000000000000e+00
302 306       0.0000000000000000e+00
302 346       0.0000000000000000e+00
302 347       0.0000000000000000e+00
302 348       0.0000000000000000e+00
302 349       0.0000000000000000e+00
302 350       0.0000000000000000e+00
302 351       0.0000000000000000e+00
302 361       0.0000000000000000e+00
302 362       0.0000000000000000e+00
302 363       0.0000000000000000e+00
302 364       0.0000000000000000e+00
302 365       0.0000000000000000e+00
302 366       0.0000000000000000e+00
302 391       0.0000000000000000e+00
302 392       0.0000000000000000e+00
302 393       0.0000000000000000e+00
302 400       0.0000000000000000e+00
302 401       0.0000000000000000e+00
302 402       0.0000000000000000e+00
302 418       0.0000000000000000e+00
302 419       0.0000000000000000e+00
302 420       0.0000000000000000e+00
302 427       0.0000000000000000e+00
302 428       0.0000000000000000e+00
302 429       0.0000000000000000e+00
302 445       0.0000000000000000e+00
302 446       0.0000000000000000e+00
302 447       0.0000000000000000e+00
302 454       0.0000000000000000e+00
302 455       0.0000000000000000e+00
302 456       0.0000000000000000e+00
303 303       0.0000000000000000e+00
303 226       0.0000000000000000e+00
303 227       0.0000000000000000e+00
303 228       0.0000000000000000e+00
303 229       0.0000000000000000e+00
303 230       0.0000000000000000e+00
303 231       0.0000000000000000e+00
303 241       0.0000000000000000e+00
303 242       0.0000000000000000e+00
303 243       0.0000000000000000e+00
303 244       0.0000000000000000e+00
303 245       0.0000000000000000e+00
303 246       0.0000000000000000e+00
303 286       0.0000000000000000e+00
303 287       0.0000000000000000e+00
303 288       0.0000000000000000e+00
303 289       0.0000000000000000e+00
303 290       0.0000000000000000e+00
303 291       0.0000000000000000e+00
303 301       0.0000000000000000e+00
303 302       0.0000000000000000e+00
303 304       0.0000000000000000e+00
303 305       0.0000000000000000e+00
303 306       0.0000000000000000e+00
303 346       0.0000000000000000e+00
303 347       0.0000000000000000e+00
303 348       0.0000000000000000e+00
303 349       0.0000000000000000e+00
303 350       0.0000000000000000e+00
303 351       0.0000000000000000e+00
303 361       0.0000000000000000e+00
303 362       0.0000000000000000e+00
303 363       0.0000000000000000e+00
303 364       0.0000000000000000e+00
303 365       0.0000000000000000e+00
303 366       0.0000000000000000e+00
303 391       0.0000000000000000e+00
303 392       0.0000000000000000e+00
303 393       0.0000000000000000e+00
303 400       0.0000000000000000e+00
303 401       0.0000000000000000e+00
303 402       0.0000000000000000e+00
303 418       0.0000000000000000e+00
303 419       0.0000000000000000e+00
303 420       0.0000000000000000e+00
303 427       0.0000000000000000e+00
303 428       0.0000000000000000e+00
303 429       0.0000000000000000e+00
303 445       0.0000000000000000e+00
303 446       0.0000000000000000e+00
303 447       0.0000000000000000e+00
303 454       0.0000000000000000e+00
303 455       0.0000000000000000e+00
303 456       0.0000000000000000e+00
304 304       0.0000000000000000e+00
304 226       0.0000000000000000e+00
304 227       0.0000000000000000e+00
304 228       0.0000000000000000e+00
304 229       0.0000000000000000e+00
304 230       0.0000000000000000e+00
304 231       0.0000000000000000e+00
304 232       0.0000000000000000e+00
304 233       0.0000000000000000e+00
304 234       0.0000000000000000e+00
304 241       0.0000000000000000e+00
304 242       0.0000000000000000e+00
304 243       0.0000000000000000e+00
304 244       0.0000000000000000e+00
304 245       0.0000000000000000e+00
304 246       0.0000000000000000e+00
304 247       0.0000000000000000e+00
304 248       0.0000000000000000e+00
304 249       0.0000000000000000e+00
304 286       0.0000000000000000e+00
304 287       0.0000000000000000e+00
304 288       0.0000000000000000e+00
304 289       0.0000000000000000e+00
304 290       0.0000000000000000e+00
304 291       0.0000000000000000e+00
304 292       0.0000000000000000e+00
304 293       0.0000000000000000e+00
304 294       0.0000000000000000e+00
304 301       0.0000000000000000e+00
304 302       0.0000000000000000e+00
304 303       0.0000000000000000e+00
304 305       0.0000000000000000e+00
304 306       0.0000000000000000e+00
304 307       0.0000000000000000e+00
304 308       0.0000000000000000e+00
304 309       0.0000000000000000e+00
304 346       0.0000000000000000e+00
304 347       0.0000000000000000e+00
304 348       0.0000000000000000e+00
304 349       0.0000000000000000e+00
304 350       0.0000000000000000e+00
304 351       0.0000000000000000e+00
304 352       0.0000000000000000e+00
304 353       0.0000000000000000e+00
304 354       0.0000000000000000e+00
304 361       0.0000000000000000e+00
304 362       0.0000000000000000e+00
304 363       0.0000000000000000e+00
304 364       0.0000000000000000e+00
304 365       0.0000000000000000e+00
304 366       0.0000000000000000e+00
304 367       0.0000000000000000e+00
304 368       0.0000000000000000e+00
304 369       0.0000000000000000e+00
304 418       0.0000000000000000e+00
304 419       0.0000000000000000e+00
304 420       0.0000000000000000e+00
304 427       0.0000000000000000e+00
304 428       0.0000000000000000e+00
304 429       0.0000000000000000e+00
305 305       0.0000000000000000e+00
305 226       0.0000000000000000e+00
305 227       0.0000000000000000e+00
305 228       0.0000000000000000e+00
305 229       0.0000000000000000e+00
305 230       0.0000000000000000e+00
305 231       0.0000000000000000e+00
305 232       0.0000000000000000e+00
305 233       0.0000000000000000e+00
305 234       0.0000000000000000e+00
305 241       0.0000000000000000e+00
305 242       0.0000000000000000e+00
305 243       0.0000000000000000e+00
305 244       0.0000000000000000e+00
305 245       0.0000000000000000e+00
305 246       0.0000000000000000e+00
305 247       0.0000000000000000e+00
305 248       0.0000000000000000e+00
305 249       0.0000000000000000e+00
305 286       0.0000000000000000e+00
305 287       0.0000000000000000e+00
305 288       0.0000000000000000e+00
305 289       0.0000000000000000e+00
305 290       0.0000000000000000e+00
305 291       0.0000000000000000e+00
305 292       0.0000000000000000e+00
305 293       0.0000000000000000e+00
305 294       0.0000000000000000e+00
305 301       0.0000000000000000e+00
305 302       0.0000000000000000e+00
305 303       0.0000000000000000e+00
305 304       0.0000000000000000e+00
305 306       0.0000000000000000e+00
305 307       0.0000000000000000e+00
305 308       0.0000000000000000e+00
305 309       0.0000000000000000e+00
305 346       0.0000000000000000e+00
305 347       0.0000000000000000e+00
305 348       0.0000000000000000e+00
305 349       0.0000000000000000e+00
305 350       0.0000000000000000e+00
305 351       0.0000000000000000e+00
305 352       0.0000000000000000e+00
305 353       0.0000000000000000e+00
305 354       0.0000000000000000e+00
305 361       0.0000000000000000e+00
305 362       0.0000000000000000e+00
305 363       0.0000000000000000e+00
305 364       0.0000000000000000e+00
305 365       0.0000000000000000e+00
305 366       0.0000000000000000e+00
305 367       0.0000000000000000e+00
305 368       0.0000000000000000e+00
305 369       0.0000000000000000e+00
305 418       0.0000000000000000e+00
305 419       0.0000000000000000e+00
305 420       0.0000000000000000e+00
305 427       0.0000000000000000e+00
305 428       0.0000000000000000e+00
305 429       0.0000000000000000e+00
306 306       0.0000000000000000e+00
306 226       0.0000000000000000e+00
306 227       0.0000000000000000e+00
306 228       0.0000000000000000e+00
306 229       0.0000000000000000e+00
306 230       0.0000000000000000e+00
306 231       0.0000000000000000e+00
306 232       0.0000000000000000e+00
306 233       0.0000000000000000e+00
306 234       0.0000000000000000e+00
306 241       0.0000000000000000e+00
306 242       0.0000000000000000e+00
306 243       0.0000000000000000e+00
306 244       0.0000000000000000e+00
306 245       0.0000000000000000e+00
306 246       0.0000000000000000e+00
306 247       0.0000000000000000e+00
306 248       0.0000000000000000e+00
306 249       0.0000000000000000e+00
306 286       0.0000000000000000e+00
306 287       0.0000000000000000e+00
306 288       0.0000000000000000e+00
306 289       0.0000000000000000e+00
306 290       0.0000000000000000e+00
306 291       0.0000000000000000e+00
306 292       0.0000000000000000e+00
306 293       0.0000000000000000e+00
306 294       0.0000000000000000e+00
306 301       0.0000000000000000e+00
306 302       0.0000000000000000e+00
306 303       0.0000000000000000e+00
306 304       0.0000000000000000e+00
306 305       0.0000000000000000e+00
306 307       0.0000000000000000e+00
306 308       0.0000000000000000e+00
306 309       0.0000000000000000e+00
306 346       0.0000000000000000e+00
306 347       0.0000000000000000e+00
306 348       0.0000000000000000e+00
306 349       0.0000000000000000e+00
306 350       0.0000000000000000e+00
306 351       0.0000000000000000e+00
306 352       0.0000000000000000e+00
306 353       0.0000000000000000e+00
306 354       0.0000000000000000e+00
306 361       0.0000000000000000e+00
306 362       0.0000000000000000e+00
306 363       0.0000000000000000e+00
306 364       0.0000000000000000e+00
306 365       0.0000000000000000e+00
306 366       0.0000000000000000e+00
306 367       0.0000000000000000e+00
306 368       0.0000000000000000e+00
306 369       0.0000000000000000e+00
306 418       0.0000000000000000e+00
306 419       0.0000000000000000e+00
306 420       0.0000000000000000e+00
306 427       0.0000000000000000e+00
306 428       0.0000000000000000e+00
306 429       0.0000000000000000e+00
307 307       0.0000000000000000e+00
307 229       0.0000000000000000e+00
307 230       0.0000000000000000e+00
307 231       0.0000000000000000e+00
307 232       0.0000000000000000e+00
307 233       0.0000000000000000e+00
307 234       0.0000000000000000e+00
307 235       0.0000000000000000e+00
307 236       0.0000000000000000e+00
307 237       0.0000000000000000e+00
307 244       0.0000000000000000e+00
307 245       0.0000000000000000e+00
307 246       0.0000000000000000e+00
307 247       0.0000000000000000e+00
307 248       0.0000000000000000e+00
307 249       0.0000000000000000e+00
307 250       0.0000000000000000e+00
307 251       0.0000000000000000e+00
307 252       0.0000000000000000e+00
307 289       0.0000000000000000e+00
307 290       0.0000000000000000e+00
307 291       0.0000000000000000e+00
307 292       0.0000000000000000e+00
307 293       0.0000000000000000e+00
307 294       0.0000000000000000e+00
307 295       0.0000000000000000e+00
307 296       0.0000000000000000e+00
307 297       0.0000000000000000e+00
307 304       0.0000000000000000e+00
307 305       0.0000000000000000e+00
307 306       0.0000000000000000e+00
307 308       0.0000000000000000e+00
307 309       0.0000000000000000e+00
307 310       0.0000000000000000e+00
307 311       0.0000000000000000e+00
307 312       0.0000000000000000e+00
307 349       0.0000000000000000e+00
307 350       0.0000000000000000e+00
307 351       0.0000000000000000e+00
307 352       0.0000000000000000e+00
307 353       0.0000000000000000e+00
307 354       0.0000000000000000e+00
307 355       0.0000000000000000e+00
307 356       0.0000000000000000e+00
307 357       0.0000000000000000e+00
307 364       0.0000000000000000e+00
307 365       0.0000000000000000e+00
307 366       0.0000000000000000e+00
307 367       0.0000000000000000e+00
307 368       0.0000000000000000e+00
307 369       0.0000000000000000e+00
307 370       0.0000000000000000e+00
307 371       0.0000000000000000e+00
307 372       0.0000000000000000e+00
308 308       0.0000000000000000e+00
308 229       0.0000000000000000e+00
308 230       0.0000000000000000e+00
308 231       0.0000000000000000e+00
308 232       0.0000000000000000e+00
308 233       0.0000000000000000e+00
308 234       0.0000000000000000e+00
308 235       0.0000000000000000e+00
308 236       0.0000000000000000e+00
308 237       0.0000000000000000e+00
308 244       0.0000000000000000e+00
308 245       0.0000000000000000e+00
308 246       0.0000000000000000e+00
308 247       0.0000000000000000e+00
308 248       0.0000000000000000e+00
308 249       0.0000000000000000e+00
308 250       0.0000000000000000e+00
308 251       0.0000000000000000e+00
308 252       0.0000000000000000e+00
308 289       0.0000000000000000e+00
308 290       0.0000000000000000e+00
308 291       0.0000000000000000e+00
308 292       0.0000000000000000e+00
308 293       0.0000000000000000e+00
308 294       0.0000000000000000e+00
308 295       0.0000000000000000e+00
308 296       0.0000000000000000e+00
308 297       0.0000000000000000e+00
308 304       0.0000000000000000e+00
308 305       0.0000000000000000e+00
308 306       0.0000000000000000e+00
308 307       0.0000000000000000e+00
308 309       0.0000000000000000e+00
308 310       0.0000000000000000e+00
308 311       0.0000000000000000e+00
308 312       0.0000000000000000e+00
308 349       0.0000000000000000e+00
308 350       0.0000000000000000e+00
308 351       0.0000000000000000e+00
308 352       0.0000000000000000e+00
308 353       0.0000000000000000e+00
308 354       0.0000000000000000e+00
308 355       0.0000000000000000e+00
308 356       0.0000000000000000e+00
308 357       0.0000000000000000e+00
308 364       0.0000000000000000e+00
308 365       0.0000000000000000e+00
308 366       0.0000000000000000e+00
308 367       0.0000000000000000e+00
308 368       0.0000000000000000e+00
308 369       0.0000000000000000e+00
308 370       0.0000000000000000e+00
308 371       0.0000000000000000e+00
308 372       0.0000000000000000e+00
309 309       0.0000000000000000e+00
309 229       0.0000000000000000e+00
309 230       0.0000000000000000e+00
309 231       0.0000000000000000e+00
309 232       0.0000000000000000e+00
309 233       0.0000000000000000e+00
309 234       0.0000000000000000e+00
309 235       0.0000000000000000e+00
309 236       0.0000000000000000e+00
309 237       0.0000000000000000e+00
309 244       0.0000000000000000e+00
309 245       0.0000000000000000e+00
309 246       0.0000000000000000e+00
309 247       0.0000000000000000e+00
309 248       0.0000000000000000e+00
309 249       0.0000000000000000e+00
309 250       0.0000000000000000e+00
309 251       0.0000000000000000e+00
309 252       0.0000000000000000e+00
309 289       0.0000000000000000e+00
309 290       0.0000000000000000e+00
309 291       0.0000000000000000e+00
309 292       0.0000000000000000e+00
309 293       0.0000000000000000e+00
309 294       0.0000000000000000e+00
309 295       0.0000000000000000e+00
309 296       0.0000000000000000e+00
309 297       0.0000000000000000e+00
309 304       0.0000000000000000e+00
309 305       0.0000000000000000e+00
309 306       0.0000000000000000e+00
309 307       0.0000000000000000e+00
309 308       0.0000000000000000e+00
309 310       0.0000000000000000e+00
309 311       0.0000000000000000e+00
309 312       0.0000000000000000e+00
309 349       0.0000000000000000e+00
309 350       0.0000000000000000e+00
309 351       0.0000000000000000e+00
309 352       0.0000000000000000e+00
309 353       0.0000000000000000e+00
309 354       0.0000000000000000e+00
309 355       0.0000000000000000e+00
309 356       0.0000000000000000e+00
309 357       0.0000000000000000e+00
309 364       0.0000000000000000e+00
309 365       0.0000000000000000e+00
309 366       0.0000000000000000e+00
309 367       0.0000000000000000e+00
309 368       0.0000000000000000e+00
309 369       0.0000000000000000e+00
309 370       0.0000000000000000e+00
309 371       0.0000000000000000e+00
309 372       0.0000000000000000e+00
310 310       0.0000000000000000e+00
310 232       0.0000000000000000e+00
310 233       0.0000000000000000e+00
310 234       0.0000000000000000e+00
310 235       0.0000000000000000e+00
310 236       0.0000000000000000e+00
310 237       0.0000000000000000e+00
310 238       0.0000000000000000e+00
310 239       0.0000000000000000e+00
310 240       0.0000000000000000e+00
310 247       0.0000000000000000e+00
310 248       0.0000000000000000e+00
310 249       0.0000000000000000e+00
310 250       0.0000000000000000e+00
310 251       0.0000000000000000e+00
310 252       0.0000000000000000e+00
310 253       0.0000000000000000e+00
310 254       0.0000000000000000e+00
310 255       0.0000000000000000e+00
310 292       0.0000000000000000e+00
310 293       0.0000000000000000e+00
310 294       0.0000000000000000e+00
310 295       0.0000000000000000e+00
310 296       0.0000000000000000e+00
310 297       0.0000000000000000e+00
310 298       0.0000000000000000e+00
310 299       0.0000000000000000e+00
310 300       0.0000000000000000e+00
310 307       0.0000000000000000e+00
310 308       0.0000000000000000e+00
310 309       0.0000000000000000e+00
310 311       0.0000000000000000e+00
310 312       0.0000000000000000e+00
310 313       0.0000000000000000e+00
310 314       0.0000000000000000e+00
310 315       0.0000000000000000e+00
310 352       0.0000000000000000e+00
310 353       0.0000000000000000e+00
310 354       0.0000000000000000e+00
310 355       0.0000000000000000e+00
310 356       0.0000000000000000e+00
310 357       0.0000000000000000e+00
310 358       0.0000000000000000e+00
310 359       0.0000000000000000e+00
310 360       0.0000000000000000e+00
310 367       0.0000000000000000e+00
310 368       0.0000000000000000e+00
310 369       0.0000000000000000e+00
310 370       0.0000000000000000e+00
310 371       0.0000000000000000e+00
310 372       0.0000000000000000e+00
310 373       0.0000000000000000e+00
310 374       0.0000000000000000e+00
310 375       0.0000000000000000e+00
311 311       0.0000000000000000e+00
311 232       0.0000000000000000e+00
311 233       0.0000000000000000e+00
311 234       0.0000000000000000e+00
311 235       0.0000000000000000e+00
311 236       0.0000000000000000e+00
311 237       0.0000000000000000e+00
311 238       0.0000000000000000e+00
311 239       0.0000000000000000e+00
311 240       0.0000000000000000e+00
311 247       0.0000000000000000e+00
311 248       0.0000000000000000e+00
311 249       0.0000000000000000e+00
311 250       0.0000000000000000e+00
311 251       0.0000000000000000e+00
311 252       0.0000000000000000e+00
311 253       0.0000000000000000e+00
311 254       0.0000000000000000e+00
311 255       0.0000000000000000e+00
311 292       0.0000000000000000e+00
311 293       0.0000000000000000e+00
311 294       0.0000000000000000e+00
311 295       0.0000000000000000e+00
311 296       0.0000000000000000e+00
311 297       0.0000000000000000e+00
311 298       0.0000000000000000e+00
311 299       0.0000000000000000e+00
311 300       0.0000000000000000e+00
311 307       0.0000000000000000e+00
311 308       0.0000000000000000e+00
311 309       0.0000000000000000e+00
311 310       0.0000000000000000e+00
311 312       0.0000000000000000e+00
311 313       0.0000000000000000e+00
311 314       0.0000000000000000e+00
311 315       0.0000000000000000e+00
311 352       0.0000000000000000e+00
311 353       0.0000000000000000e+00
311 354       0.0000000000000000e+00
311 355       0.0000000000000000e+00
311 356       0.0000000000000000e+00
311 357       0.0000000000000000e+00
311 358       0.0000000000000000e+00
311 359       0.0000000000000000e+00
311 360       0.0000000000000000e+00
311 367       0.0000000000000000e+00
311 368       0.0000000000000000e+00
311 369       0.0000000000000000e+00
311 370       0.0000000000000000e+00
311 371       0.0000000000000000e+00
311 372       0.0000000000000000e+00
311 373       0.0000000000000000e+00
311 374       0.0000000000000000e+00
311 375       0.0000000000000000e+00
312 312       0.0000000000000000e+00
312 232       0.0000000000000000e+00
312 233       0.0000000000000000e+00
312 234       0.0000000000000000e+00
312 235       0.0000000000000000e+00
312 236       0.0000000000000000e+00
312 237       0.0000000000000000e+00
312 238       0.0000000000000000e+00
312 239       0.0000000000000000e+00
312 240       0.0000000000000000e+00
312 247       0.0000000000000000e+00
312 248       0.0000000000000000e+00
312 249       0.0000000000000000e+00
312 250       0.0000000000000000e+00
312 251       0.0000000000000000e+00
312 252       0.0000000000000000e+00
312 253       0.0000000000000000e+00
312 254       0.0000000000000000e+00
312 255       0.0000000000000000e+00
312 292       0.0000000000000000e+00
312 293       0.0000000000000000e+00
312 294       0.0000000000000000e+00
312 295       0.0000000000000000e+00
312 296       0.0000000000000000e+00
312 297       0.0000000000000000e+00
312 298       0.0000000000000000e+00
312 299       0.0000000000000000e+00
312 300       0.0000000000000000e+00
312 307       0.0000000000000000e+00
312 308       0.0000000000000000e+00
312 309       0.0000000000000000e+00
312 310       0.0000000000000000e+00
312 311       0.0000000000000000e+00
312 313       0.0000000000000000e+00
312 314       0.0000000000000000e+00
312 315       0.0000000000000000e+00
312 352       0.0000000000000000e+00
312 353       0.0000000000000000e+00
312 354       0.0000000000000000e+00
312 355       0.0000000000000000e+00
312 356       0.0000000000000000e+00
312 357       0.0000000000000000e+00
312 358       0.0000000000000000e+00
312 359       0.0000000000000000e+00
312 360       0.0000000000000000e+00
312 367       0.0000000000000000e+00
312 368       0.0000000000000000e+00
312 369       0.0000000000000000e+00
312 370       0.0000000000000000e+00
312 371       0.0000000000000000e+00
312 372       0.0000000000000000e+00
312 373       0.0000000000000000e+00
312 374       0.0000000000000000e+00
312 375       0.0000000000000000e+00
313 313       0.0000000000000000e+00
313 235       0.0000000000000000e+00
313 236       0.0000000000000000e+00
313 237       0.0000000000000000e+00
313 238       0.0000000000000000e+00
313 239       0.0000000000000000e+00
313 240       0.0000000000000000e+00
313 250       0.0000000000000000e+00
313 251       0.0000000000000000e+00
313 252       0.0000000000000000e+00
313 253       0.0000000000000000e+00
313 254       0.0000000000000000e+00
313 255       0.0000000000000000e+00
313 295       0.0000000000000000e+00
313 296       0.0000000000000000e+00
313 297       0.0000000000000000e+00
313 298       0.0000000000000000e+00
313 299       0.0000000000000000e+00
313 300       0.0000000000000000e+00
313 310       0.0000000000000000e+00
313 311       0.0000000000000000e+00
313 312       0.0000000000000000e+00
313 314       0.0000000000000000e+00
313 315       0.0000000000000000e+00
313 355       0.0000000000000000e+00
313 356       0.0000000000000000e+00
313 357       0.0000000000000000e+00
313 358       0.0000000000000000e+00
313 359       0.0000000000000000e+00
313 360       0.0000000000000000e+00
313 370       0.0000000000000000e+00
313 371       0.0000000000000000e+00
313 372       0.0000000000000000e+00
313 373       0.0000000000000000e+00
313 374       0.0000000000000000e+00
313 375       0.0000000000000000e+00
314 314       0.0000000000000000e+00
314 235       0.0000000000000000e+00
314 236       0.0000000000000000e+00
314 237       0.0000000000000000e+00
314 238       0.0000000000000000e+00
314 239       0.0000000000000000e+00
314 240       0.0000000000000000e+00
314 250       0.0000000000000000e+00
314 251       0.0000000000000000e+00
314 252       0.0000000000000000e+00
314 253       0.0000000000000000e+00
314 254       0.0000000000000000e+00
314 255       0.0000000000000000e+00
314 295       0.0000000000000000e+00
314 296       0.0000000000000000e+00
314 297       0.0000000000000000e+00
314 298       0.0000000000000000e+00
314 299       0.0000000000000000e+00
314 300       0.0000000000000000e+00
314 310       0.0000000000000000e+00
314 311       0.0000000000000000e+00
314 312       0.0000000000000000e+00
314 313       0.0000000000000000e+00
314 315       0.0000000000000000e+00
314 355       0.0000000000000000e+00
314 356       0.0000000000000000e+00
314 357       0.0000000000000000e+00
314 358       0.0000000000000000e+00
314 359       0.0000000000000000e+00
314 360       0.0000000000000000e+00
314 370       0.0000000000000000e+00
314 371       0.0000000000000000e+00
314 372       0.0000000000000000e+00
314 373       0.0000000000000000e+00
314 374       0.0000000000000000e+00
314 375       0.0000000000000000e+00
315 315       0.0000000000000000e+00
315 235       0.0000000000000000e+00
315 236       0.0000000000000000e+00
315 237       0.0000000000000000e+00
315 238       0.0000000000000000e+00
315 239       0.0000000000000000e+00
315 240       0.0000000000000000e+00
315 250       0.0000000000000000e+00
315 251       0.0000000000000000e+00
315 252       0.0000000000000000e+00
315 253       0.0000000000000000e+00
315 254       0.0000000000000000e+00
315 255       0.0000000000000000e+00
315 295       0.0000000000000000e+00
315 296       0.0000000000000000e+00
315 297       0.0000000000000000e+00
315 298       0.0000000000000000e+00
315 299       0.0000000000000000e+00
315 300       0.0000000000000000e+00
315 310       0.0000000000000000e+00
315 311       0.0000000000000000e+00
315 312       0.0000000000000000e+00
315 313       0.0000000000000000e+00
315 314       0.0000000000000000e+00
315 355       0.0000000000000000e+00
315 356       0.0000000000000000e+00
315 357       0.0000000000000000e+00
315 358       0.0000000000000000e+00
315 359       0.0000000000000000e+00
315 360       0.0000000000000000e+00
315 370       0.0000000000000000e+00
315 371       0.0000000000000000e+00
315 372       0.0000000000000000e+00
315 373       0.0000000000000000e+00
315 374       0.0000000000000000e+00
315 375       0.0000000000000000e+00
316 316       0.0000000000000000e+00
316 256       0.0000000000000000e+00
316 257       0.0000000000000000e+00
316 258       0.0000000000000000e+00
316 259       0.0000000000000000e+00
316 260       0.0000000000000000e+00
316 261       0.0000000000000000e+00
316 271       0.0000000000000000e+00
316 272       0.0000000000000000e+00
316 273       0.0000000000000000e+00
316 274       0.0000000000000000e+00
316 275       0.0000000000000000e+00
316 276       0.0000000000000000e+00
316 317       0.0000000000000000e+00
316 318       0.0000000000000000e+00
316 319       0.0000000000000000e+00
316 320       0.0000000000000000e+00
316 321       0.0000000000000000e+00
316 331       0.0000000000000000e+00
316 332       0.0000000000000000e+00
316 333       0.0000000000000000e+00
316 334       0.0000000000000000e+00
316 335       0.0000000000000000e+00
316 336       0.0000000000000000e+00
316 394       0.0000000000000000e+00
316 395       0.0000000000000000e+00
316 396       0.0000000000000000e+00
316 421       0.0000000000000000e+00
316 422       0.0000000000000000e+00
316 423       0.0000000000000000e+00
316 448       0.0000000000000000e+00
316 449       0.0000000000000000e+00
316 450       0.0000000000000000e+00
317 317       0.0000000000000000e+00
317 256       0.0000000000000000e+00
317 257       0.0000000000000000e+00
317 258       0.0000000000000000e+00
317 259       0.0000000000000000e+00
317 260       0.0000000000000000e+00
317 261       0.0000000000000000e+00
317 271       0.0000000000000000e+00
317 272       0.0000000000000000e+00
317 273       0.0000000000000000e+00
317 274       0.0000000000000000e+00
317 275       0.0000000000000000e+00
317 276       0.0000000000000000e+00
317 316       0.0000000000000000e+00
317 318       0.0000000000000000e+00
317 319       0.0000000000000000e+00
317 320       0.0000000000000000e+00
317 321       0.0000000000000000e+00
317 331       0.0000000000000000e+00
317 332       0.0000000000000000e+00
317 333       0.0000000000000000e+00
317 334       0.0000000000000000e+00
317 335       0.0000000000000000e+00
317 336       0.0000000000000000e+00
317 394       0.0000000000000000e+00
317 395       0.0000000000000000e+00
317 396       0.0000000000000000e+00
317 421       0.0000000000000000e+00
317 422       0.0000000000000000e+00
317 423       0.0000000000000000e+00
317 448       0.0000000000000000e+00
317 449       0.0000000000000000e+00
317 450       0.0000000000000000e+00
318 318       0.0000000000000000e+00
318 256       0.0000000000000000e+00
318 257       0.0000000000000000e+00
318 258       0.0000000000000000e+00
318 259       0.0000000000000000e+00
318 260       0.0000000000000000e+00
318 261       0.0000000000000000e+00
318 271       0.0000000000000000e+00
318 272       0.0000000000000000e+00
318 273       0.0000000000000000e+00
318 274       0.0000000000000000e+00
318 275       0.0000000000000000e+00
318 276       0.0000000000000000e+00
318 316       0.0000000000000000e+00
318 317       0.0000000000000000e+00
318 319       0.0000000000000000e+00
318 320       0.0000000000000000e+00
318 321       0.0000000000000000e+00
318 331       0.0000000000000000e+00
318 332       0.0000000000000000e+00
318 333       0.0000000000000000e+00
318 334       0.0000000000000000e+00
318 335       0.0000000000000000e+00
318 336       0.0000000000000000e+00
318 394       0.0000000000000000e+00
318 395       0.0000000000000000e+00
318 396       0.0000000000000000e+00
318 421       0.0000000000000000e+00
318 422       0.0000000000000000e+00
318 423       0.0000000000000000e+00
318 448       0.0000000000000000e+00
318 449       0.0000000000000000e+00
318 450       0.0000000000000000e+00
319 319       0.0000000000000000e+00
319 256       0.0000000000000000e+00
319 257       0.0000000000000000e+00
319 258       0.0000000000000000e+00
319 259       0.0000000000000000e+00
319 260       0.0000000000000000e+00
319 261       0.0000000000000000e+00
319 262       0.0000000000000000e+00
319 263       0.0000000000000000e+00
319 264       0.0000000000000000e+00
319 271       0.0000000000000000e+00
319 272       0.0000000000000000e+00
319 273       0.0000000000000000e+00
319 274       0.0000000000000000e+00
319 275       0.0000000000000000e+00
319 276       0.0000000000000000e+00
319 277       0.0000000000000000e+00
319 278       0.0000000000000000e+00
319 279       0.0000000000000000e+00
319 316       0.0000000000000000e+00
319 317       0.0000000000000000e+00
319 318       0.0000000000000000e+00
319 320       0.0000000000000000e+00
319 321       0.0000000000000000e+00
319 322       0.0000000000000000e+00
319 323       0.0000000000000000e+00
319 324       0.0000000000000000e+00
319 331       0.0000000000000000e+00
319 332       0.0000000000000000e+00
319 333       0.0000000000000000e+00
319 334       0.0000000000000000e+00
319 335       0.0000000000000000e+00
319 336       0.0000000000000000e+00
319 337       0.0000000000000000e+00
319 338       0.0000000000000000e+00
319 339       0.0000000000000000e+00
319 421       0.0000000000000000e+00
319 422       0.0000000000000000e+00
319 423       0.0000000000000000e+00
320 320       0.0000000000000000e+00
320 256       0.0000000000000000e+00
320 257       0.0000000000000000e+00
320 258       0.0000000000000000e+00
320 259       0.0000000000000000e+00
320 260       0.0000000000000000e+00
320 261       0.0000000000000000e+00
320 262       0.0000000000000000e+00
320 263       0.0000000000000000e+00
320 264       0.0000000000000000e+00
320 271       0.0000000000000000e+00
320 272       0.0000000000000000e+00
320 273       0.0000000000000000e+00
320 274       0.0000000000000000e+00
320 275       0.0000000000000000e+00
320 276       0.0000000000000000e+00
320 277       0.0000000000000000e+00
320 278       0.0000000000000000e+00
320 279       0.0000000000000000e+00
320 316       0.0000000000000000e+00
320 317       0.0000000000000000e+00
320 318       0.0000000000000000e+00
320 319       0.0000000000000000e+00
320 321       0.0000000000000000e+00
320 322       0.0000000000000000e+00
320 323       0.0000000000000000e+00
320 324       0.0000000000000000e+00
320 331       0.0000000000000000e+00
320 332       0.0000000000000000e+00
320 333       0.0000000000000000e+00
320 334       0.0000000000000000e+00
320 335       0.0000000000000000e+00
320 336       0.0000000000000000e+00
320 337       0.0000000000000000e+00
320 338       0.0000000000000000e+00
320 339       0.0000000000000000e+00
320 421       0.0000000000000000e+00
320 422       0.0000000000000000e+00
320 423       0.0000000000000000e+00
321 321       0.0000000000000000e+00
321 256       0.0000000000000000e+00
321 257       0.0000000000000000e+00
321 258       0.0000000000000000e+00
321 259       0.0000000000000000e+00
321 260       0.0000000000000000e+00
321 261       0.0000000000000000e+00
321 262       0.0000000000000000e+00
321 263       0.0000000000000000e+00
321 264       0.0000000000000000e+00
321 271       0.0000000000000000e+00
321 272       0.0000000000000000e+00
321 273       0.0000000000000000e+00
321 274       0.0000000000000000e+00
321 275       0.0000000000000000e+00
321 276       0.0000000000000000e+00
321 277       0.0000000000000000e+00
321 278       0.0000000000000000e+00
321 279       0.0000000000000000e+00
321 316       0.0000000000000000e+00
321 317       0.0000000000000000e+00
321 318       0.0000000000000000e+00
321 319       0.0000000000000000e+00
321 320       0.0000000000000000e+00
321 322       0.0000000000000000e+00
321 323       0.0000000000000000e+00
321 324       0.0000000000000000e+00
321 331       0.0000000000000000e+00
321 332       0.0000000000000000e+00
321 333       0.0000000000000000e+00
321 334       0.0000000000000000e+00
321 335       0.0000000000000000e+00
321 336       0.0000000000000000e+00
321 337       0.0000000000000000e+00
321 338       0.0000000000000000e+00
321 339       0.0000000000000000e+00
321 421       0.0000000000000000e+00
321 422       0.0000000000000000e+00
321 423       0.0000000000000000e+00
322 322       0.0000000000000000e+00
322 259       0.0000000000000000e+00
322 260       0.0000000000000000e+00
322 261       0.0000000000000000e+00
322 262       0.0000000000000000e+00
322 263       0.0000000000000000e+00
322 264       0.0000000000000000e+00
322 265       0.0000000000000000e+00
322 266       0.0000000000000000e+00
322 267       0.0000000000000000e+00
322 274       0.0000000000000000e+00
322 275       0.0000000000000000e+00
322 276       0.0000000000000000e+00
322 277       0.0000000000000000e+00
322 278       0.0000000000000000e+00
322 279       0.0000000000000000e+00
322 280       0.0000000000000000e+00
322 281       0.0000000000000000e+00
322 282       0.0000000000000000e+00
322 319       0.0000000000000000e+00
322 320       0.0000000000000000e+00
322 321       0.0000000000000000e+00
322 323       0.0000000000000000e+00
322 324       0.0000000000000000e+00
322 325       0.0000000000000000e+00
322 326       0.0000000000000000e+00
322 327       0.0000000000000000e+00
322 334       0.0000000000000000e+00
322 335       0.0000000000000000e+00
322 336       0.0000000000000000e+00
322 337       0.0000000000000000e+00
322 338       0.0000000000000000e+00
322 339       0.0000000000000000e+00
322 340       0.0000000000000000e+00
322 341       0.0000000000000000e+00
322 342       0.0000000000000000e+00
323 323       0.0000000000000000e+00
323 259       0.0000000000000000e+00
323 260       0.0000000000000000e+00
323 261       0.0000000000000000e+00
323 262       0.0000000000000000e+00
323 263       0.0000000000000000e+00
323 264       0.0000000000000000e+00
323 265       0.0000000000000000e+00
323 266       0.0000000000000000e+00
323 267       0.0000000000000000e+00
323 274       0.0000000000000000e+00
323 275       0.0000000000000000e+00
323 276       0.0000000000000000e+00
323 277       0.0000000000000000e+00
323 278       0.0000000000000000e+00
323 279       0.0000000000000000e+00
323 280       0.0000000000000000e+00
323 281       0.0000000000000000e+00
323 282       0.0000000000000000e+00
323 319       0.0000000000000000e+00
323 320       0.0000000000000000e+00
323 321       0.0000000000000000e+00
323 322       0.0000000000000000e+00
323 324       0.0000000000000000e+00
323 325       0.0000000000000000e+00
323 326       0.0000000000000000e+00
323 327       0.0000000000000000e+00
323 334       0.0000000000000000e+00
323 335       0.0000000000000000e+00
323 336       0.0000000000000000e+00
323 337       0.0000000000000000e+00
323 338       0.0000000000000000e+00
323 339       0.0000000000000000e+00
323 340       0.0000000000000000e+00
323 341       0.0000000000000000e+00
323 342       0.0000000000000000e+00
324 324       0.0000000000000000e+00
324 259       0.0000000000000000e+00
324 260       0.0000000000000000e+00
324 261       0.0000000000000000e+00
324 262       0.0000000000000000e+00
324 263       0.0000000000000000e+00
324 264       0.0000000000000000e+00
324 265       0.0000000000000000e+00
324 266       0.0000000000000000e+00
324 267       0.0000000000000000e+00
324 274       0.0000000000000000e+00
324 275       0.0000000000000000e+00
324 276       0.0000000000000000e+00
324 277       0.0000000000000000e+00
324 278       0.0000000000000000e+00
324 279       0.0000000000000000e+00
324 280       0.0000000000000000e+00
324 281       0.0000000000000000e+00
324 282       0.0000000000000000e+00
324 319       0.0000000000000000e+00
324 320       0.0000000000000000e+00
324 321       0.0000000000000000e+00
324 322       0.0000000000000000e+00
324 323       0.0000000000000000e+00
324 325       0.0000000000000000e+00
324 326       0.0000000000000000e+00
324 327       0.0000000000000000e+00
324 334       0.0000000000000000e+00
324 335       0.0000000000000000e+00
324 336       0.0000000000000000e+00
324 337       0.0000000000000000e+00
324 338       0.0000000000000000e+00
324 339       0.0000000000000000e+00
324 340       0.0000000000000000e+00
324 341       0.0000000000000000e+00
324 342       0.0000000000000000e+00
325 325       0.0000000000000000e+00
325 262       0.0000000000000000e+00
325 263       0.0000000000000000e+00
325 264       0.0000000000000000e+00
325 265       0.0000000000000000e+00
325 266       0.0000000000000000e+00
325 267       0.0000000000000000e+00
325 268       0.0000000000000000e+00
325 269       0.0000000000000000e+00
325 270       0.0000000000000000e+00
325 277       0.0000000000000000e+00
325 278       0.0000000000000000e+00
325 279       0.0000000000000000e+00
325 280       0.0000000000000000e+00
325 281       0.0000000000000000e+00
325 282       0.0000000000000000e+00
325 283       0.0000000000000000e+00
325 284       0.0000000000000000e+00
325 285       0.0000000000000000e+00
325 322       0.0000000000000000e+00
325 323       0.0000000000000000e+00
325 324       0.0000000000000000e+00
325 326       0.0000000000000000e+00
325 327       0.0000000000000000e+00
325 328       0.0000000000000000e+00
325 329       0.0000000000000000e+00
325 330       0.0000000000000000e+00
325 337       0.0000000000000000e+00
325 338       0.0000000000000000e+00
325 339       0.0000000000000000e+00
325 340       0.0000000000000000e+00
325 341       0.0000000000000000e+00
325 342       0.0000000000000000e+00
325 343       0.0000000000000000e+00
325 344       0.0000000000000000e+00
325 345       0.0000000000000000e+00
326 326       0.0000000000000000e+00
326 262       0.0000000000000000e+00
326 263       0.0000000000000000e+00
326 264       0.0000000000000000e+00
326 265       0.0000000000000000e+00
326 266       0.0000000000000000e+00
326 267       0.0000000000000000e+00
326 268       0.0000000000000000e+00
326 269       0.0000000000000000e+00
326 270       0.0000000000000000e+00
326 277       0.0000000000000000e+00
326 278       0.0000000000000000e+00
326 279       0.0000000000000000e+00
326 280       0.0000000000000000e+00
326 281       0.0000000000000000e+00
326 282       0.0000000000000000e+00
326 283       0.0000000000000000e+00
326 284       0.0000000000000000e+00
326 285       0.0000000000000000e+00
326 322       0.0000000000000000e+00
326 323       0.0000000000000000e+00
326 324       0.0000000000000000e+00
326 325       0.0000000000000000e+00
326 327       0.0000000000000000e+00
326 328       0.0000000000000000e+00
326 329       0.0000000000000000e+00
326 330       0.0000000000000000e+00
326 337       0.0000000000000000e+00
326 338       0.0000000000000000e+00
326 339       0.0000000000000000e+00
326 340       0.0000000000000000e+00
326 341       0.0000000000000000e+00
326 342       0.0000000000000000e+00
326 343       0.0000000000000000e+00
326 344       0.0000000000000000e+00
326 345       0.0000000000000000e+00
327 327       0.0000000000000000e+00
327 262       0.0000000000000000e+00
327 263       0.0000000000000000e+00
327 264       0.0000000000000000e+00
327 265       0.0000000000000000e+00
327 266       0.0000000000000000e+00
327 267       0.0000000000000000e+00
327 268       0.0000000000000000e+00
327 269       0.0000000000000000e+00
327 270       0.0000000000000000e+00
327 277       0.0000000000000000e+00
327 278       0.0000000000000000e+00
327 279       0.0000000000000000e+00
327 280       0.0000000000000000e+00
327 281       0.0000000000000000e+00
327 282       0.0000000000000000e+00
327 283       0.0000000000000000e+00
327 284       0.0000000000000000e+00
327 285       0.0000000000000000e+00
327 322       0.0000000000000000e+00
327 323       0.0000000000000000e+00
327 324       0.0000000000000000e+00
327 325       0.0000000000000000e+00
327 326       0.0000000000000000e+00
327 328       0.0000000000000000e+00
327 329       0.0000000000000000e+00
327 330       0.0000000000000000e+00
327 337       0.0000000000000000e+00
327 338       0.0000000000000000e+00
327 339       0.0000000000000000e+00
327 340       0.0000000000000000e+00
327 341       0.0000000000000000e+00
327 342       0.0000000000000000e+00
327 343       0.0000000000000000e+00
327 344       0.0000000000000000e+00
327 345       0.0000000000000000e+00
328 328       0.0000000000000000e+00
328 265       0.0000000000000000e+00
328 266       0.0000000000000000e+00
328 267       0.0000000000000000e+00
328 268       0.0000000000000000e+00
328 269       0.0000000000000000e+00
328 270       0.0000000000000000e+00
328 280       0.0000000000000000e+00
328 281       0.0000000000000000e+00
328 282       0.0000000000000000e+00
328 283       0.0000000000000000e+00
328 284       0.0000000000000000e+00
328 285       0.0000000000000000e+00
328 325       0.0000000000000000e+00
328 326       0.0000000000000000e+00
328 327       0.0000000000000000e+00
328 329       0.0000000000000000e+00
328 330       0.0000000000000000e+00
328 340       0.0000000000000000e+00
328 341       0.0000000000000000e+00
328 342       0.0000000000000000e+00
328 343       0.0000000000000000e+00
328 344       0.0000000000000000e+00
328 345       0.0000000000000000e+00
329 329       0.0000000000000000e+00
329 265       0.0000000000000000e+00
329 266       0.0000000000000000e+00
329 267       0.0000000000000000e+00
329 268       0.0000000000000000e+00
329 269       0.0000000000000000e+00
329 270       0.0000000000000000e+00
329 280       0.0000000000000000e+00
329 281       0.0000000000000000e+00
329 282       0.0000000000000000e+00
329 283       0.0000000000000000e+00
329 284       0.0000000000000000e+00
329 285       0.0000000000000000e+00
329 325       0.0000000000000000e+00
329 326       0.0000000000000000e+00
329 327       0.0000000000000000e+00
329 328       0.0000000000000000e+00
329 330       0.0000000000000000e+00
329 340       0.0000000000000000e+00
329 341       0.0000000000000000e+00
329 342       0.0000000000000000e+00
329 343       0.0000000000000000e+00
329 344       0.0000000000000000e+00
329 345       0.0000000000000000e+00
330 330       0.0000000000000000e+00
330 265       0.0000000000000000e+00
330 266       0.0000000000000000e+00
330 267       0.0000000000000000e+00
330 268       0.0000000000000000e+00
330 269       0.0000000000000000e+00
330 270       0.0000000000000000e+00
330 280       0.0000000000000000e+00
330 281       0.0000000000000000e+00
330 282       0.0000000000000000e+00
330 283       0.0000000000000000e+00
330 284       0.0000000000000000e+00
330 285       0.0000000000000000e+00
330 325       0.0000000000000000e+00
330 326       0.0000000000000000e+00
330 327       0.0000000000000000e+00
330 328       0.0000000000000000e+00
330 329       0.0000000000000000e+00
330 340       0.0000000000000000e+00
330 341       0.0000000000000000e+00
330 342       0.0000000000000000e+00
330 343       0.0000000000000000e+00
330 344       0.0000000000000000e+00
330 345       0.0000000000000000e+00
331 331       0.0000000000000000e+00
331 256       0.0000000000000000e+00
331 257       0.0000000000000000e+00
331 258       0.0000000000000000e+00
331 259       0.0000000000000000e+00
331 260       0.0000000000000000e+00
331 261       0.0000000000000000e+00
331 271       0.0000000000000000e+00
331 272       0.0000000000000000e+00
331 273       0.0000000000000000e+00
331 274       0.0000000000000000e+00
331 275       0.0000000000000000e+00
331 276       0.0000000000000000e+00
331 286       0.0000000000000000e+00
331 287       0.0000000000000000e+00
331 288       0.0000000000000000e+00
331 289       0.0000000000000000e+00
331 290       0.0000000000000000e+00
331 291       0.0000000000000000e+00
331 316       0.0000000000000000e+00
331 317       0.0000000000000000e+00
331 318       0.0000000000000000e+00
331 319       0.0000000000000000e+00
331 320       0.0000000000000000e+00
331 321       0.0000000000000000e+00
331 332       0.0000000000000000e+00
331 333       0.0000000000000000e+00
331 334       0.0000000000000000e+00
331 335       0.0000000000000000e+00
331 336       0.0000000000000000e+00
331 346       0.0000000000000000e+00
331 347       0.0000000000000000e+00
331 348       0.0000000000000000e+00
331 349       0.0000000000000000e+00
331 350       0.0000000000000000e+00
331 351       0.0000000000000000e+00
331 394       0.0000000000000000e+00
331 395       0.0000000000000000e+00
331 396       0.0000000000000000e+00
331 397       0.0000000000000000e+00
331 398       0.0000000000000000e+00
331 399       0.0000000000000000e+00
331 421       0.0000000000000000e+00
331 422       0.0000000000000000e+00
331 423       0.0000000000000000e+00
331 424       0.0000000000000000e+00
331 425       0.0000000000000000e+00
331 426       0.0000000000000000e+00
331 448       0.0000000000000000e+00
331 449       0.0000000000000000e+00
331 450       0.0000000000000000e+00
331 451       0.0000000000000000e+00
331 452       0.0000000000000000e+00
331 453       0.0000000000000000e+00
332 332       0.0000000000000000e+00
332 256       0.0000000000000000e+00
332 257       0.0000000000000000e+00
332 258       0.0000000000000000e+00
332 259       0.0000000000000000e+00
332 260       0.0000000000000000e+00
332 261       0.0000000000000000e+00
332 271       0.0000000000000000e+00
332 272       0.0000000000000000e+00
332 273       0.0000000000000000e+00
332 274       0.0000000000000000e+00
332 275       0.0000000000000000e+00
332 276       0.0000000000000000e+00
332 286       0.0000000000000000e+00
332 287       0.0000000000000000e+00
332 288       0.0000000000000000e+00
332 289       0.0000000000000000e+00
332 290       0.0000000000000000e+00
332 291       0.0000000000000000e+00
332 316       0.0000000000000000e+00
332 317       0.0000000000000000e+00
332 318       0.0000000000000000e+00
332 319       0.0000000000000000e+00
332 320       0.0000000000000000e+00
332 321       0.0000000000000000e+00
332 331       0.0000000000000000e+00
332 333       0.0000000000000000e+00
332 334       0.0000000000000000e+00
332 335       0.0000000000000000e+00
332 336       0.0000000000000000e+00
332 346       0.0000000000000000e+00
332 347       0.0000000000000000e+00
332 348       0.0000000000000000e+00
332 349       0.0000000000000000e+00
332 350       0.0000000000000000e+00
332 351       0.0000000000000000e+00
332 394       0.0000000000000000e+00
332 395       0.0000000000000000e+00
332 396       0.0000000000000000e+00
332 397       0.0000000000000000e+00
332 398       0.0000000000000000e+00
332 399       0.0000000000000000e+00
332 421       0.0000000000000000e+00
332 422       0.0000000000000000e+00
332 423       0.0000000000000000e+00
332 424       0.0000000000000000e+00
332 425       0.0000000000000000e+00
332 426       0.0000000000000000e+00
332 448       0.0000000000000000e+00
332 449       0.0000000000000000e+00
332 450       0.0000000000000000e+00
332 451       0.0000000000000000e+00
332 452       0.0000000000000000e+00
332 453       0.0000000000000000e+00
333 333       0.0000000000000000e+00
333 256       0.0000000000000000e+00
333 257       0.0000000000000000e+00
333 258       0.0000000000000000e+00
333 259       0.0000000000000000e+00
333 260       0.0000000000000000e+00
333 261       0.0000000000000000e+00
333 271       0.0000000000000000e+00
333 272       0.0000000000000000e+00
333 273       0.0000000000000000e+00
333 274       0.0000000000000000e+00
333 275       0.0000000000000000e+00
333 276       0.0000000000000000e+00
333 286       0.0000000000000000e+00
333 287       0.0000000000000000e+00
333 288       0.0000000000000000e+00
333 289       0.0000000000000000e+00
333 290       0.0000000000000000e+00
333 291       0.0000000000000000e+00
333 316       0.0000000000000000e+00
333 317       0.0000000000000000e+00
333 318       0.0000000000000000e+00
333 319       0.0000000000000000e+00
333 320       0.0000000000000000e+00
333 321       0.0000000000000000e+00
333 331       0.0000000000000000e+00
333 332       0.0000000000000000e+00
333 334       0.0000000000000000e+00
333 335       0.0000000000000000e+00
333 336       0.0000000000000000e+00
333 346       0.0000000000000000e+00
333 347       0.0000000000000000e+00
333 348       0.0000000000000000e+00
333 349       0.0000000000000000e+00
333 350       0.0000000000000000e+00
333 351       0.0000000000000000e+00
333 394       0.0000000000000000e+00
333 395       0.0000000000000000e+00
333 396       0.0000000000000000e+00
333 397       0.0000000000000000e+00
333 398       0.0000000000000000e+00
333 399       0.0000000000000000e+00
333 421       0.0000000000000000e+00
333 422       0.0000000000000000e+00
333 423       0.0000000000000000e+00
333 424       0.0000000000000000e+00
333 425       0.0000000000000000e+00
333 426       0.0000000000000000e+00
333 448       0.0000000000000000e+00
333 449       0.0000000000000000e+00
333 450       0.0000000000000000e+00
333 451       0.0000000000000000e+00
333 452       0.0000000000000000e+00
333 453       0.0000000000000000e+00
334 334       0.0000000000000000e+00
334 256       0.0000000000000000e+00
334 257       0.0000000000000000e+00
334 258       0.0000000000000000e+00
334 259       0.0000000000000000e+00
334 260       0.0000000000000000e+00
334 261       0.0000000000000000e+00
334 262       0.0000000000000000e+00
334 263       0.0000000000000000e+00
334 264       0.0000000000000000e+00
334 271       0.0000000000000000e+00
334 272       0.0000000000000000e+00
334 273       0.0000000000000000e+00
334 274       0.0000000000000000e+00
334 275       0.0000000000000000e+00
334 276       0.0000000000000000e+00
334 277       0.0000000000000000e+00
334 278       0.0000000000000000e+00
334 279       0.0000000000000000e+00
334 286       0.0000000000000000e+00
334 287       0.0000000000000000e+00
334 288       0.0000000000000000e+00
334 289       0.0000000000000000e+00
334 290       0.0000000000000000e+00
334 291       0.0000000000000000e+00
334 292       0.0000000000000000e+00
334 293       0.0000000000000000e+00
334 294       0.0000000000000000e+00
334 316       0.0000000000000000e+00
334 317       0.0000000000000000e+00
334 318       0.0000000000000000e+00
334 319       0.0000000000000000e+00
334 320       0.0000000000000000e+00
334 321       0.0000000000000000e+00
334 322       0.0000000000000000e+00
334 323       0.0000000000000000e+00
334 324       0.0000000000000000e+00
334 331       0.0000000000000000e+00
334 332       0.0000000000000000e+00
334 333       0.0000000000000000e+00
334 335       0.0000000000000000e+00
334 336       0.0000000000000000e+00
334 337       0.0000000000000000e+00
334 338       0.0000000000000000e+00
334 339       0.0000000000000000e+00
334 346       0.0000000000000000e+00
334 347       0.0000000000000000e+00
334 348       0.0000000000000000e+00
334 349       0.0000000000000000e+00
334 350       0.0000000000000000e+00
334 351       0.0000000000000000e+00
334 352       0.0000000000000000e+00
334 353       0.0000000000000000e+00
334 354       0.0000000000000000e+00
334 421       0.0000000000000000e+00
334 422       0.0000000000000000e+00
334 423       0.0000000000000000e+00
334 424       0.0000000000000000e+00
334 425       0.0000000000000000e+00
334 426       0.0000000000000000e+00
335 335       0.0000000000000000e+00
335 256       0.0000000000000000e+00
335 257       0.0000000000000000e+00
335 258       0.0000000000000000e+00
335 259       0.0000000000000000e+00
335 260       0.0000000000000000e+00
335 261       0.0000000000000000e+00
335 262       0.0000000000000000e+00
335 263       0.0000000000000000e+00
335 264       0.0000000000000000e+00
335 271       0.0000000000000000e+00
335 272       0.0000000000000000e+00
335 273       0.0000000000000000e+00
335 274       0.0000000000000000e+00
335 275       0.0000000000000000e+00
335 276       0.0000000000000000e+00
335 277       0.0000000000000000e+00
335 278       0.0000000000000000e+00
335 279       0.0000000000000000e+00
335 286       0.0000000000000000e+00
335 287       0.0000000000000000e+00
335 288       0.0000000000000000e+00
335 289       0.0000000000000000e+00
335 290       0.0000000000000000e+00
335 291       0.0000000000000000e+00
335 292       0.0000000000000000e+00
335 293       0.0000000000000000e+00
335 294       0.0000000000000000e+00
335 316       0.0000000000000000e+00
335 317       0.0000000000000000e+00
335 318       0.0000000000000000e+00
335 319       0.0000000000000000e+00
335 320       0.0000000000000000e+00
335 321       0.0000000000000000e+00
335 322       0.0000000000000000e+00
335 323       0.0000000000000000e+00
335 324       0.0000000000000000e+00
335 331       0.0000000000000000e+00
335 332       0.0000000000000000e+00
335 333       0.0000000000000000e+00
335 334       0.0000000000000000e+00
335 336       0.0000000000000000e+00
335 337       0.0000000000000000e+00
335 338       0.0000000000000000e+00
335 339       0.0000000000000000e+00
335 346       0.0000000000000000e+00
335 347       0.0000000000000000e+00
335 348       0.0000000000000000e+00
335 349       0.0000000000000000e+00
335 350       0.0000000000000000e+00
335 351       0.0000000000000000e+00
335 352       0.0000000000000000e+00
335 353       0.0000000000000000e+00
335 354       0.0000000000000000e+00
335 421       0.0000000000000000e+00
335 422       0.0000000000000000e+00
335 423       0.0000000000000000e+00
335 424       0.0000000000000000e+00
335 425       0.0000000000000000e+00
335 426       0.0000000000000000e+00
336 336       0.0000000000000000e+00
336 256       0.0000000000000000e+00
336 257       0.0000000000000000e+00
336 258       0.0000000000000000e+00
336 259       0.0000000000000000e+00
336 260       0.0000000000000000e+00
336 261       0.0000000000000000e+00
336 262       0.0000000000000000e+00
336 263       0.0000000000000000e+00
336 264       0.0000000000000000e+00
336 271       0.0000000000000000e+00
336 272       0.0000000000000000e+00
336 273       0.0000000000000000e+00
336 274       0.0000000000000000e+00
336 275       0.0000000000000000e+00
336 276       0.0000000000000000e+00
336 277       0.0000000000000000e+00
336 278       0.0000000000000000e+00
336 279       0.0000000000000000e+00
336 286       0.0000000000000000e+00
336 287       0.0000000000000000e+00
336 288       0.0000000000000000e+00
336 289       0.0000000000000000e+00
336 290       0.0000000000000000e+00
336 291       0.0000000000000000e+00
336 292       0.0000000000000000e+00
336 293       0.0000000000000000e+00
336 294       0.0000000000000000e+00
336 316       0.0000000000000000e+00
336 317       0.0000000000000000e+00
336 318       0.0000000000000000e+00
336 319       0.0000000000000000e+00
336 320       0.0000000000000000e+00
336 321       0.0000000000000000e+00
336 322       0.0000000000000000e+00
336 323       0.0000000000000000e+00
336 324       0.0000000000000000e+00
336 331       0.0000000000000000e+00
336 332       0.0000000000000000e+00
336 333       0.0000000000000000e+00
336 334       0.0000000000000000e+00
336 335       0.0000000000000000e+00
336 337       0.0000000000000000e+00
336 338       0.0000000000000000e+00
336 339       0.0000000000000000e+00
336 346       0.0000000000000000e+00
336 347       0.0000000000000000e+00
336 348       0.0000000000000000e+00
336 349       0.0000000000000000e+00
336 350       0.0000000000000000e+00
336 351       0.0000000000000000e+00
336 352       0.0000000000000000e+00
336 353       0.0000000000000000e+00
336 354       0.0000000000000000e+00
336 421       0.0000000000000000e+00
336 422       0.0000000000000000e+00
336 423       0.0000000000000000e+00
336 424       0.0000000000000000e+00
336 425       0.0000000000000000e+00
336 426       0.0000000000000000e+00
337 337       0.0000000000000000e+00
337 259       0.0000000000000000e+00
337 260       0.0000000000000000e+00
337 261       0.0000000000000000e+00
337 262       0.0000000000000000e+00
337 263       0.0000000000000000e+00
337 264       0.0000000000000000e+00
337 265       0.0000000000000000e+00
337 266       0.0000000000000000e+00
337 267       0.0000000000000000e+00
337 274       0.0000000000000000e+00
337 275       0.0000000000000000e+00
337 276       0.0000000000000000e+00
337 277       0.0000000000000000e+00
337 278       0.0000000000000000e+00
337 279       0.0000000000000000e+00
337 280       0.0000000000000000e+00
337 281       0.0000000000000000e+00
337 282       0.0000000000000000e+00
337 289       0.0000000000000000e+00
337 290       0.0000000000000000e+00
337 291       0.0000000000000000e+00
337 292       0.0000000000000000e+00
337 293       0.0000000000000000e+00
337 294       0.0000000000000000e+00
337 295       0.0000000000000000e+00
337 296       0.0000000000000000e+00
337 297       0.0000000000000000e+00
337 319       0.0000000000000000e+00
337 320       0.0000000000000000e+00
337 321       0.0000000000000000e+00
337 322       0.0000000000000000e+00
337 323       0.0000000000000000e+00
337 324       0.0000000000000000e+00
337 325       0.0000000000000000e+00
337 326       0.0000000000000000e+00
337 327       0.0000000000000000e+00
337 334       0.0000000000000000e+00
337 335       0.0000000000000000e+00
337 336       0.0000000000000000e+00
337 338       0.0000000000000000e+00
337 339       0.0000000000000000e+00
337 340       0.0000000000000000e+00
337 341       0.0000000000000000e+00
337 342       0.0000000000000000e+00
337 349       0.0000000000000000e+00
337 350       0.0000000000000000e+00
337 351       0.0000000000000000e+00
337 352       0.0000000000000000e+00
337 353       0.0000000000000000e+00
337 354       0.0000000000000000e+00
337 355       0.0000000000000000e+00
337 356       0.0000000000000000e+00
337 357       0.0000000000000000e+00
338 338       0.0000000000000000e+00
338 259       0.0000000000000000e+00
338 260       0.0000000000000000e+00
338 261       0.0000000000000000e+00
338 262       0.0000000000000000e+00
338 263       0.0000000000000000e+00
338 264       0.0000000000000000e+00
338 265       0.0000000000000000e+00
338 266       0.0000000000000000e+00
338 267       0.0000000000000000e+00
338 274       0.0000000000000000e+00
338 275       0.0000000000000000e+00
338 276       0.0000000000000000e+00
338 277       0.0000000000000000e+00
338 278       0.0000000000000000e+00
338 279       0.0000000000000000e+00
338 280       0.0000000000000000e+00
338 281       0.0000000000000000e+00
338 282       0.0000000000000000e+00
338 289       0.0000000000000000e+00
338 290       0.0000000000000000e+00
338 291       0.0000000000000000e+00
338 292       0.0000000000000000e+00
338 293       0.0000000000000000e+00
338 294       0.0000000000000000e+00
338 295       0.0000000000000000e+00
338 296       0.0000000000000000e+00
338 297       0.0000000000000000e+00
338 319       0.0000000000000000e+00
338 320       0.0000000000000000e+00
338 321       0.0000000000000000e+00
338 322       0.0000000000000000e+00
338 323       0.0000000000000000e+00
338 324       0.0000000000000000e+00
338 325       0.0000000000000000e+00
338 326       0.0000000000000000e+00
338 327       0.0000000000000000e+00
338 334       0.0000000000000000e+00
338 335       0.0000000000000000e+00
338 336       0.0000000000000000e+00
338 337       0.0000000000000000e+00
338 339       0.0000000000000000e+00
338 340       0.0000000000000000e+00
338 341       0.0000000000000000e+00
338 342       0.0000000000000000e+00
338 349       0.0000000000000000e+00
338 350       0.0000000000000000e+00
338 351       0.0000000000000000e+00
338 352       0.0000000000000000e+00
338 353       0.0000000000000000e+00
338 354       0.0000000000000000e+00
338 355       0.0000000000000000e+00
338 356       0.0000000000000000e+00
338 357       0.0000000000000000e+00
339 339       0.0000000000000000e+00
339 259       0.0000000000000000e+00
339 260       0.0000000000000000e+00
339 261       0.0000000000000000e+00
339 262       0.0000000000000000e+00
339 263       0.0000000000000000e+00
339 264       0.0000000000000000e+00
339 265       0.0000000000000000e+00
339 266       0.0000000000000000e+00
339 267       0.0000000000000000e+00
339 274       0.0000000000000000e+00
339 275       0.0000000000000000e+00
339 276       0.0000000000000000e+00
339 277       0.0000000000000000e+00
339 278       0.0000000000000000e+00
339 279       0.0000000000000000e+00
339 280       0.0000000000000000e+00
339 281       0.0000000000000000e+00
339 282       0.0000000000000000e+00
339 289       0.0000000000000000e+00
339 290       0.0000000000000000e+00
339 291       0.0000000000000000e+00
339 292       0.0000000000000000e+00
339 293       0.0000000000000000e+00
339 294       0.0000000000000000e+00
339 295       0.0000000000000000e+00
339 296       0.0000000000000000e+00
339 297       0.0000000000000000e+00
339 319       0.0000000000000000e+00
339 320       0.0000000000000000e+00
339 321       0.0000000000000000e+00
339 322       0.0000000000000000e+00
339 323       0.0000000000000000e+00
339 324       0.0000000000000000e+00
339 325       0.0000000000000000e+00
339 326       0.0000000000000000e+00
339 327       0.0000000000000000e+00
339 334       0.0000000000000000e+00
339 335       0.0000000000000000e+00
339 336       0.0000000000000000e+00
339 337       0.0000000000000000e+00
339 338       0.0000000000000000e+00
339 340       0.0000000000000000e+00
339 341       0.0000000000000000e+00
339 342       0.0000000000000000e+00
339 349       0.0000000000000000e+00
339 350       0.0000000000000000e+00
339 351       0.0000000000000000e+00
339 352       0.0000000000000000e+00
339 353       0.0000000000000000e+00
339 354       0.0000000000000000e+00
339 355       0.0000000000000000e+00
339 356       0.0000000000000000e+00
339 357       0.0000000000000000e+00
340 340       0.0000000000000000e+00
340 262       0.0000000000000000e+00
340 263       0.0000000000000000e+00
340 264       0.0000000000000000e+00
340 265       0.0000000000000000e+00
340 266       0.0000000000000000e+00
340 267       0.0000000000000000e+00
340 268       0.0000000000000000e+00
340 269       0.0000000000000000e+00
340 270       0.0000000000000000e+00
340 277       0.0000000000000000e+00
340 278       0.0000000000000000e+00
340 279       0.0000000000000000e+00
340 280       0.0000000000000000e+00
340 281       0.0000000000000000e+00
340 282       0.0000000000000000e+00
340 283       0.0000000000000000e+00
340 284       0.0000000000000000e+00
340 285       0.0000000000000000e+00
340 292       0.0000000000000000e+00
340 293       0.0000000000000000e+00
340 294       0.0000000000000000e+00
340 295       0.0000000000000000e+00
340 296       0.0000000000000000e+00
340 297       0.0000000000000000e+00
340 298       0.0000000000000000e+00
340 299       0.0000000000000000e+00
340 300       0.0000000000000000e+00
340 322       0.0000000000000000e+00
340 323       0.0000000000000000e+00
340 324       0.0000000000000000e+00
340 325       0.0000000000000000e+00
340 326       0.0000000000000000e+00
340 327       0.0000000000000000e+00
340 328       0.0000000000000000e+00
340 329       0.0000000000000000e+00
340 330       0.0000000000000000e+00
340 337       0.0000000000000000e+00
340 338       0.0000000000000000e+00
340 339       0.0000000000000000e+00
340 341       0.0000000000000000e+00
340 342       0.0000000000000000e+00
340 343       0.0000000000000000e+00
340 344       0.0000000000000000e+00
340 345       0.0000000000000000e+00
340 352       0.0000000000000000e+00
340 353       0.0000000000000000e+00
340 354       0.0000000000000000e+00
340 355       0.0000000000000000e+00
340 356       0.0000000000000000e+00
340 357       0.0000000000000000e+00
340 358       0.0000000000000000e+00
340 359       0.0000000000000000e+00
340 360       0.0000000000000000e+00
341 341       0.0000000000000000e+00
341 262       0.0000000000000000e+00
341 263       0.0000000000000000e+00
341 264       0.0000000000000000e+00
341 265       0.0000000000000000e+00
341 266       0.0000000000000000e+00
341 267       0.0000000000000000e+00
341 268       0.0000000000000000e+00
341 269       0.0000000000000000e+00
341 270       0.0000000000000000e+00
341 277       0.0000000000000000e+00
341 278       0.0000000000000000e+00
341 279       0.0000000000000000e+00
341 280       0.0000000000000000e+00
341 281       0.0000000000000000e+00
341 282       0.0000000000000000e+00
341 283       0.0000000000000000e+00
341 284       0.0000000000000000e+00
341 285       0.0000000000000000e+00
341 292       0.0000000000000000e+00
341 293       0.0000000000000000e+00
341 294       0.0000000000000000e+00
341 295       0.0000000000000000e+00
341 296       0.0000000000000000e+00
341 297       0.0000000000000000e+00
341 298       0.0000000000000000e+00
341 299       0.0000000000000000e+00
341 300       0.0000000000000000e+00
341 322       0.0000000000000000e+00
341 323       0.0000000000000000e+00
341 324       0.0000000000000000e+00
341 325       0.0000000000000000e+00
341 326       0.0000000000000000e+00
341 327       0.0000000000000000e+00
341 328       0.0000000000000000e+00
341 329       0.0000000000000000e+00
341 330       0.0000000000000000e+00
341 337       0.0000000000000000e+00
341 338       0.0000000000000000e+00
341 339       0.0000000000000000e+00
341 340       0.0000000000000000e+00
341 342       0.0000000000000000e+00
341 343       0.0000000000000000e+00
341 344       0.0000000000000000e+00
341 345       0.0000000000000000e+00
341 352       0.0000000000000000e+00
341 353       0.0000000000000000e+00
341 354       0.0000000000000000e+00
341 355       0.0000000000000000e+00
341 356       0.0000000000000000e+00
341 357       0.0000000000000000e+00
341 358       0.0000000000000000e+00
341 359       0.0000000000000000e+00
341 360       0.0000000000000000e+00
342 342       0.0000000000000000e+00
342 262       0.0000000000000000e+00
342 263       0.0000000000000000e+00
342 264       0.0000000000000000e+00
342 265       0.0000000000000000e+00
342 266       0.0000000000000000e+00
342 267       0.0000000000000000e+00
342 268       0.0000000000000000e+00
342 269       0.0000000000000000e+00
342 270       0.0000000000000000e+00
342 277       0.0000000000000000e+00
342 278       0.0000000000000000e+00
342 279       0.0000000000000000e+00
342 280       0.0000000000000000e+00
342 281       0.0000000000000000e+00
342 282       0.0000000000000000e+00
342 283       0.0000000000000000e+00
342 284       0.0000000000000000e+00
342 285       0.0000000000000000e+00
342 292       0.0000000000000000e+00
342 293       0.0000000000000000e+00
342 294       0.0000000000000000e+00
342 295       0.0000000000000000e+00
342 296       0.0000000000000000e+00
342 297       0.0000000000000000e+00
342 298       0.0000000000000000e+00
342 299       0.0000000000000000e+00
342 300       0.0000000000000000e+00
342 322       0.0000000000000000e+00
342 323       0.0000000000000000e+00
342 324       0.0000000000000000e+00
342 325       0.0000000000000000e+00
342 326       0.0000000000000000e+00
342 327       0.0000000000000000e+00
342 328       0.0000000000000000e+00
342 329       0.0000000000000000e+00
342 330       0.0000000000000000e+00
342 337       0.0000000000000000e+00
342 338       0.0000000000000000e+00
342 339       0.0000000000000000e+00
342 340       0.0000000000000000e+00
342 341       0.0000000000000000e+00
342 343       0.0000000000000000e+00
342 344       0.0000000000000000e+00
342 345       0.0000000000000000e+00
342 352       0.0000000000000000e+00
342 353       0.0000000000000000e+00
342 354       0.0000000000000000e+00
342 355       0.0000000000000000e+00
342 356       0.0000000000000000e+00
342 357       0.0000000000000000e+00
342 358       0.0000000000000000e+00
342 359       0.0000000000000000e+00
342 360       0.0000000000000000e+00
343 343       0.0000000000000000e+00
343 265       0.0000000000000000e+00
343 266       0.0000000000000000e+00
343 267       0.0000000000000000e+00
343 268       0.0000000000000000e+00
343 269       0.0000000000000000e+00
343 270       0.0000000000000000e+00
343 280       0.0000000000000000e+00
343 281       0.0000000000000000e+00
343 282       0.0000000000000000e+00
343 283       0.0000000000000000e+00
343 284       0.0000000000000000e+00
343 285       0.0000000000000000e+00
343 295       0.0000000000000000e+00
343 296       0.0000000000000000e+00
343 297       0.0000000000000000e+00
343 298       0.0000000000000000e+00
343 299       0.0000000000000000e+00
343 300       0.0000000000000000e+00
343 325       0.0000000000000000e+00
343 326       0.0000000000000000e+00
343 327       0.0000000000000000e+00
343 328       0.0000000000000000e+00
343 329       0.0000000000000000e+00
343 330       0.0000000000000000e+00
343 340       0.0000000000000000e+00
343 341       0.0000000000000000e+00
343 342       0.0000000000000000e+00
343 344       0.0000000000000000e+00
343 345       0.0000000000000000e+00
343 355       0.0000000000000000e+00
343 356       0.0000000000000000e+00
343 357       0.0000000000000000e+00
343 358       0.0000000000000000e+00
343 359       0.0000000000000000e+00
343 360       0.0000000000000000e+00
344 344       0.0000000000000000e+00
344 265       0.0000000000000000e+00
344 266       0.0000000000000000e+00
344 267       0.0000000000000000e+00
344 268       0.0000000000000000e+00
344 269       0.0000000000000000e+00
344 270       0.0000000000000000e+00
344 280       0.0000000000000000e+00
344 281       0.0000000000000000e+00
344 282       0.0000000000000000e+00
344 283       0.0000000000000000e+00
344 284       0.0000000000000000e+00
344 285       0.0000000000000000e+00
344 295       0.0000000000000000e+00
344 296       0.0000000000000000e+00
344 297       0.0000000000000000e+00
344 298       0.0000000000000000e+00
344 299       0.0000000000000000e+00
344 300       0.0000000000000000e+00
344 325       0.0000000000000000e+00
344 326       0.0000000000000000e+00
344 327       0.0000000000000000e+00
344 328       0.0000000000000000e+00
344 329       0.0000000000000000e+00
344 330       0.0000000000000000e+00
344 340       0.0000000000000000e+00
344 341       0.0000000000000000e+00
344 342       0.0000000000000000e+00
344 343       0.0000000000000000e+00
344 345       0.0000000000000000e+00
344 355       0.0000000000000000e+00
344 356       0.0000000000000000e+00
344 357       0.0000000000000000e+00
344 358       0.0000000000000000e+00
344 359       0.0000000000000000e+00
344 360       0.0000000000000000e+00
345 345       0.0000000000000000e+00
345 265       0.0000000000000000e+00
345 266       0.0000000000000000e+00
345 267       0.0000000000000000e+00
345 268       0.0000000000000000e+00
345 269       0.0000000000000000e+00
345 270       0.0000000000000000e+00
345 280       0.0000000000000000e+00
345 281       0.0000000000000000e+00
345 282       0.0000000000000000e+00
345 283       0.0000000000000000e+00
345 284       0.0000000000000000e+00
345 285       0.0000000000000000e+00
345 295       0.0000000000000000e+00
345 296       0.0000000000000000e+00
345 297       0.0000000000000000e+00
345 298       0.0000000000000000e+00
345 299       0.0000000000000000e+00
345 300       0.0000000000000000e+00
345 325       0.0000000000000000e+00
345 326       0.0000000000000000e+00
345 327       0.0000000000000000e+00
345 328       0.0000000000000000e+00
345 329       0.0000000000000000e+00
345 330       0.0000000000000000e+00
345 340       0.0000000000000000e+00
345 341       0.0000000000000000e+00
345 342       0.0000000000000000e+00
345 343       0.0000000000000000e+00
345 344       0.0000000000000000e+00
345 355       0.0000000000000000e+00
345 356       0.0000000000000000e+00
345 357       0.0000000000000000e+00
345 358       0.0000000000000000e+00
345 359       0.0000000000000000e+00
345 360       0.0000000000000000e+00
346 346       0.0000000000000000e+00
346 271       0.0000000000000000e+00
346 272       0.0000000000000000e+00
346 273       0.0000000000000000e+00
346 274       0.0000000000000000e+00
346 275       0.0000000000000000e+00
346 276       0.0000000000000000e+00
346 286       0.0000000000000000e+00
346 287       0.0000000000000000e+00
346 288       0.0000000000000000e+00
346 289       0.0000000000000000e+00
346 290       0.0000000000000000e+00
346 291       0.0000000000000000e+00
346 301       0.0000000000000000e+00
346 302       0.0000000000000000e+00
346 303       0.0000000000000000e+00
346 304       0.0000000000000000e+00
346 305       0.0000000000000000e+00
346 306       0.0000000000000000e+00
346 331       0.0000000000000000e+00
346 332       0.0000000000000000e+00
346 333       0.0000000000000000e+00
346 334       0.0000000000000000e+00
346 335       0.0000000000000000e+00
346 336       0.0000000000000000e+00
346 347       0.0000000000000000e+00
346 348       0.0000000000000000e+00
346 349       0.0000000000000000e+00
346 350       0.0000000000000000e+00
346 351       0.0000000000000000e+00
346 361       0.0000000000000000e+00
346 362       0.0000000000000000e+00
346 363       0.0000000000000000e+00
346 364       0.0000000000000000e+00
346 365       0.0000000000000000e+00
346 366       0.0000000000000000e+00
346 397       0.0000000000000000e+00
346 398       0.0000000000000000e+00
346 399       0.0000000000000000e+00
346 400       0.0000000000000000e+00
346 401       0.0000000000000000e+00
346 402       0.0000000000000000e+00
346 424       0.0000000000000000e+00
346 425       0.0000000000000000e+00
346 426       0.0000000000000000e+00
346 427       0.0000000000000000e+00
346 428       0.0000000000000000e+00
346 429       0.0000000000000000e+00
346 451       0.0000000000000000e+00
346 452       0.0000000000000000e+00
346 453       0.0000000000000000e+00
346 454       0.0000000000000000e+00
346 455       0.0000000000000000e+00
346 456       0.0000000000000000e+00
347 347       0.0000000000000000e+00
347 271       0.0000000000000000e+00
347 272       0.0000000000000000e+00
347 273       0.0000000000000000e+00
347 274       0.0000000000000000e+00
347 275       0.0000000000000000e+00
347 276       0.0000000000000000e+00
347 286       0.0000000000000000e+00
347 287       0.0000000000000000e+00
347 288       0.0000000000000000e+00
347 289       0.0000000000000000e+00
347 290       0.0000000000000000e+00
347 291       0.0000000000000000e+00
347 301       0.0000000000000000e+00
347 302       0.0000000000000000e+00
347 303       0.0000000000000000e+00
347 304       0.0000000000000000e+00
347 305       0.0000000000000000e+00
347 306       0.0000000000000000e+00
347 331       0.0000000000000000e+00
347 332       0.0000000000000000e+00
347 333       0.0000000000000000e+00
347 334       0.0000000000000000e+00
347 335       0.0000000000000000e+00
347 336       0.0000000000000000e+00
347 346       0.0000000000000000e+00
347 348       0.0000000000000000e+00
347 349       0.0000000000000000e+00
347 350       0.0000000000000000e+00
347 351       0.0000000000000000e+00
347 361       0.0000000000000000e+00
347 362       0.0000000000000000e+00
347 363       0.0000000000000000e+00
347 364       0.0000000000000000e+00
347 365       0.0000000000000000e+00
347 366       0.0000000000000000e+00
347 397       0.0000000000000000e+00
347 398       0.0000000000000000e+00
347 399       0.0000000000000000e+00
347 400       0.0000000000000000e+00
347 401       0.0000000000000000e+00
347 402       0.0000000000000000e+00
347 424       0.0000000000000000e+00
347 425       0.0000000000000000e+00
347 426       0.0000000000000000e+00
347 427       0.0000000000000000e+00
347 428       0.0000000000000000e+00
347 429       0.0000000000000000e+00
347 451       0.0000000000000000e+00
347 452       0.0000000000000000e+00
347 453       0.0000000000000000e+00
347 454       0.0000000000000000e+00
347 455       0.0000000000000000e+00
347 456       0.0000000000000000e+00
348 348       0.0000000000000000e+00
348 271       0.0000000000000000e+00
348 272       0.0000000000000000e+00
348 273       0.0000000000000000e+00
348 274       0.0000000000000000e+00
348 275       0.0000000000000000e+00
348 276       0.0000000000000000e+00
348 286       0.0000000000000000e+00
348 287       0.0000000000000000e+00
348 288       0.0000000000000000e+00
348 289       0.0000000000000000e+00
348 290       0.0000000000000000e+00
348 291       0.0000000000000000e+00
348 301       0.0000000000000000e+00
348 302       0.0000000000000000e+00
348 303       0.0000000000000000e+00
348 304       0.0000000000000000e+00
348 305       0.0000000000000000e+00
348 306       0.0000000000000000e+00
348 331       0.0000000000000000e+00
348 332       0.0000000000000000e+00
348 333       0.0000000000000000e+00
348 334       0.0000000000000000e+00
348 335       0.0000000000000000e+00
348 336       0.0000000000000000e+00
348 346       0.0000000000000000e+00
348 347       0.0000000000000000e+00
348 349       0.0000000000000000e+00
348 350       0.0000000000000000e+00
348 351       0.0000000000000000e+00
348 361       0.0000000000000000e+00
348 362       0.0000000000000000e+00
348 363       0.0000000000000000e+00
348 364       0.0000000000000000e+00
348 365       0.0000000000000000e+00
348 366       0.0000000000000000e+00
348 397       0.0000000000000000e+00
348 398       0.0000000000000000e+00
348 399       0.0000000000000000e+00
348 400       0.0000000000000000e+00
348 401       0.0000000000000000e+00
348 402       0.0000000000000000e+00
348 424       0.0000000000000000e+00
348 425       0.0000000000000000e+00
348 426       0.0000000000000000e+00
348 427       0.0000000000000000e+00
348 428       0.0000000000000000e+00
348 429       0.0000000000000000e+00
348 451       0.0000000000000000e+00
348 452       0.0000000000000000e+00
348 453       0.0000000000000000e+00
348 454       0.0000000000000000e+00
348 455       0.0000000000000000e+00
348 456       0.0000000000000000e+00
349 349       0.0000000000000000e+00
349 271       0.0000000000000000e+00
349 272       0.0000000000000000e+00
349 273       0.0000000000000000e+00
349 274       0.0000000000000000e+00
349 275       0.0000000000000000e+00
349 276       0.0000000000000000e+00
349 277       0.0000000000000000e+00
349 278       0.0000000000000000e+00
349 279       0.0000000000000000e+00
349 286       0.0000000000000000e+00
349 287       0.0000000000000000e+00
349 288       0.0000000000000000e+00
349 289       0.0000000000000000e+00
349 290       0.0000000000000000e+00
349 291       0.0000000000000000e+00
349 292       0.0000000000000000e+00
349 293       0.0000000000000000e+00
349 294       0.0000000000000000e+00
349 301       0.0000000000000000e+00
349 302       0.0000000000000000e+00
349 303       0.0000000000000000e+00
349 304       0.0000000000000000e+00
349 305       0.0000000000000000e+00
349 306       0.0000000000000000e+00
349 307       0.0000000000000000e+00
349 308       0.0000000000000000e+00
349 309       0.0000000000000000e+00
349 331       0.0000000000000000e+00
349 332       0.0000000000000000e+00
349 333       0.0000000000000000e+00
349 334       0.0000000000000000e+00
349 335       0.0000000000000000e+00
349 336       0.0000000000000000e+00
349 337       0.0000000000000000e+00
349 338       0.0000000000000000e+00
349 339       0.0000000000000000e+00
349 346       0.0000000000000000e+00
349 347       0.0000000000000000e+00
349 348       0.0000000000000000e+00
349 350       0.0000000000000000e+00
349 351       0.0000000000000000e+00
349 352       0.0000000000000000e+00
349 353       0.0000000000000000e+00
349 354       0.0000000000000000e+00
349 361       0.0000000000000000e+00
349 362       0.0000000000000000e+00
349 363       0.0000000000000000e+00
349 364       0.0000000000000000e+00
349 365       0.0000000000000000e+00
349 366       0.0000000000000000e+00
349 367       0.0000000000000000e+00
349 368       0.0000000000000000e+00
349 369       0.0000000000000000e+00
349 424       0.0000000000000000e+00
349 425       0.0000000000000000e+00
349 426       0.0000000000000000e+00
349 427       0.0000000000000000e+00
349 428       0.0000000000000000e+00
349 429       0.0000000000000000e+00
350 350       0.0000000000000000e+00
350 271       0.0000000000000000e+00
350 272       0.0000000000000000e+00
350 273       0.0000000000000000e+00
350 274       0.0000000000000000e+00
350 275       0.0000000000000000e+00
350 276       0.0000000000000000e+00
350 277       0.0000000000000000e+00
350 278       0.0000000000000000e+00
350 279       0.0000000000000000e+00
350 286       0.0000000000000000e+00
350 287       0.0000000000000000e+00
350 288       0.0000000000000000e+00
350 289       0.0000000000000000e+00
350 290       0.0000000000000000e+00
350 291       0.0000000000000000e+00
350 292       0.0000000000000000e+00
350 293       0.0000000000000000e+00
350 294       0.0000000000000000e+00
350 301       0.0000000000000000e+00
350 302       0.0000000000000000e+00
350 303       0.0000000000000000e+00
350 304       0.0000000000000000e+00
350 305       0.0000000000000000e+00
350 306       0.0000000000000000e+00
350 307       0.0000000000000000e+00
350 308       0.0000000000000000e+00
350 309       0.0000000000000000e+00
350 331       0.0000000000000000e+00
350 332       0.0000000000000000e+00
350 333       0.0000000000000000e+00
350 334       0.0000000000000000e+00
350 335       0.0000000000000000e+00
350 336       0.0000000000000000e+00
350 337       0.0000000000000000e+00
350 338       0.0000000000000000e+00
350 339       0.0000000000000000e+00
350 346       0.0000000000000000e+00
350 347       0.0000000000000000e+00
350 348       0.0000000000000000e+00
350 349       0.0000000000000000e+00
350 351       0.0000000000000000e+00
350 352       0.0000000000000000e+00
350 353       0.0000000000000000e+00
350 354       0.0000000000000000e+00
350 361       0.0000000000000000e+00
350 362       0.0000000000000000e+00
350 363       0.0000000000000000e+00
350 364       0.0000000000000000e+00
350 365       0.0000000000000000e+00
350 366       0.0000000000000000e+00
350 367       0.0000000000000000e+00
350 368       0.0000000000000000e+00
350 369       0.0000000000000000e+00
350 424       0.0000000000000000e+00
350 425       0.0000000000000000e+00
350 426       0.0000000000000000e+00
350 427       0.0000000000000000e+00
350 428       0.0000000000000000e+00
350 429       0.0000000000000000e+00
351 351       0.0000000000000000e+00
351 271       0.0000000000000000e+00
351 272       0.0000000000000000e+00
351 273       0.0000000000000000e+00
351 274       0.0000000000000000e+00
351 275       0.0000000000000000e+00
351 276       0.0000000000000000e+00
351 277       0.0000000000000000e+00
351 278       0.0000000000000000e+00
351 279       0.0000000000000000e+00
351 286       0.0000000000000000e+00
351 287       0.0000000000000000e+00
351 288       0.0000000000000000e+00
351 289       0.0000000000000000e+00
351 290       0.0000000000000000e+00
351 291       0.0000000000000000e+00
351 292       0.0000000000000000e+00
351 293       0.0000000000000000e+00
351 294       0.0000000000000000e+00
351 301       0.0000000000000000e+00
351 302       0.0000000000000000e+00
351 303       0.0000000000000000e+00
351 304       0.0000000000000000e+00
351 305       0.0000000000000000e+00
351 306       0.0000000000000000e+00
351 307       0.0000000000000000e+00
351 308       0.0000000000000000e+00
351 309       0.0000000000000000e+00
351 331       0.0000000000000000e+00
351 332       0.0000000000000000e+00
351 333       0.0000000000000000e+00
351 334       0.0000000000000000e+00
351 335       0.0000000000000000e+00
351 336       0.0000000000000000e+00
351 337       0.0000000000000000e+00
351 338       0.0000000000000000e+00
351 339       0.0000000000000000e+00
351 346       0.0000000000000000e+00
351 347       0.0000000000000000e+00
351 348       0.0000000000000000e+00
351 349       0.0000000000000000e+00
351 350       0.0000000000000000e+00
351 352       0.0000000000000000e+00
351 353       0.0000000000000000e+00
351 354       0.0000000000000000e+00
351 361       0.0000000000000000e+00
351 362       0.0000000000000000e+00
351 363       0.0000000000000000e+00
351 364       0.0000000000000000e+00
351 365       0.0000000000000000e+00
351 366       0.0000000000000000e+00
351 367       0.0000000000000000e+00
351 368       0.0000000000000000e+00
351 369       0.0000000000000000e+00
351 424       0.0000000000000000e+00
351 425       0.0000000000000000e+00
351 426       0.0000000000000000e+00
351 427       0.0000000000000000e+00
351 428       0.0000000000000000e+00
351 429       0.0000000000000000e+00
352 352       0.0000000000000000e+00
352 274       0.0000000000000000e+00
352 275       0.0000000000000000e+00
352 276       0.0000000000000000e+00
352 277       0.0000000000000000e+00
352 278       0.0000000000000000e+00
352 279       0.0000000000000000e+00
352 280       0.0000000000000000e+00
352 281       0.0000000000000000e+00
352 282       0.0000000000000000e+00
352 289       0.0000000000000000e+00
352 290       0.0000000000000000e+00
352 291       0.0000000000000000e+00
352 292       0.0000000000000000e+00
352 293       0.0000000000000000e+00
352 294       0.0000000000000000e+00
352 295       0.0000000000000000e+00
352 296       0.0000000000000000e+00
352 297       0.0000000000000000e+00
352 304       0.0000000000000000e+00
352 305       0.0000000000000000e+00
352 306       0.0000000000000000e+00
352 307       0.0000000000000000e+00
352 308       0.0000000000000000e+00
352 309       0.0000000000000000e+00
352 310       0.0000000000000000e+00
352 311       0.0000000000000000e+00
352 312       0.0000000000000000e+00
352 334       0.0000000000000000e+00
352 335       0.0000000000000000e+00
352 336       0.0000000000000000e+00
352 337       0.0000000000000000e+00
352 338       0.0000000000000000e+00
352 339       0.0000000000000000e+00
352 340       0.0000000000000000e+00
352 341       0.0000000000000000e+00
352 342       0.0000000000000000e+00
352 349       0.0000000000000000e+00
352 350       0.0000000000000000e+00
352 351       0.0000000000000000e+00
352 353       0.0000000000000000e+00
352 354       0.0000000000000000e+00
352 355       0.0000000000000000e+00
352 356       0.0000000000000000e+00
352 357       0.0000000000000000e+00
352 364       0.0000000000000000e+00
352 365       0.0000000000000000e+00
352 366       0.0000000000000000e+00
352 367       0.0000000000000000e+00
352 368       0.0000000000000000e+00
352 369       0.0000000000000000e+00
352 370       0.0000000000000000e+00
352 371       0.0000000000000000e+00
352 372       0.0000000000000000e+00
353 353       0.0000000000000000e+00
353 274       0.0000000000000000e+00
353 275       0.0000000000000000e+00
353 276       0.0000000000000000e+00
353 277       0.0000000000000000e+00
353 278       0.0000000000000000e+00
353 279       0.0000000000000000e+00
353 280       0.0000000000000000e+00
353 281       0.0000000000000000e+00
353 282       0.0000000000000000e+00
353 289       0.0000000000000000e+00
353 290       0.0000000000000000e+00
353 291       0.0000000000000000e+00
353 292       0.0000000000000000e+00
353 293       0.0000000000000000e+00
353 294       0.0000000000000000e+00
353 295       0.0000000000000000e+00
353 296       0.0000000000000000e+00
353 297       0.0000000000000000e+00
353 304       0.0000000000000000e+00
353 305       0.0000000000000000e+00
353 306       0.0000000000000000e+00
353 307       0.0000000000000000e+00
353 308       0.0000000000000000e+00
353 309       0.0000000000000000e+00
353 310       0.0000000000000000e+00
353 311       0.0000000000000000e+00
353 312       0.0000000000000000e+00
353 334       0.0000000000000000e+00
353 335       0.0000000000000000e+00
353 336       0.0000000000000000e+00
353 337       0.0000000000000000e+00
353 338       0.0000000000000000e+00
353 339       0.0000000000000000e+00
353 340       0.0000000000000000e+00
353 341       0.0000000000000000e+00
353 342       0.0000000000000000e+00
353 349       0.0000000000000000e+00
353 350       0.0000000000000000e+00
353 351       0.0000000000000000e+00
353 352       0.0000000000000000e+00
353 354       0.0000000000000000e+00
353 355       0.0000000000000000e+00
353 356       0.0000000000000000e+00
353 357       0.0000000000000000e+00
353 364       0.0000000000000000e+00
353 365       0.0000000000000000e+00
353 366       0.0000000000000000e+00
353 367       0.0000000000000000e+00
353 368       0.0000000000000000e+00
353 369       0.0000000000000000e+00
353 370       0.0000000000000000e+00
353 371       0.0000000000000000e+00
353 372       0.0000000000000000e+00
354 354       0.0000000000000000e+00
354 274       0.0000000000000000e+00
354 275       0.0000000000000000e+00
354 276       0.0000000000000000e+00
354 277       0.0000000000000000e+00
354 278       0.0000000000000000e+00
354 279       0.0000000000000000e+00
354 280       0.0000000000000000e+00
354 281       0.0000000000000000e+00
354 282       0.0000000000000000e+00
354 289       0.0000000000000000e+00
354 290       0.0000000000000000e+00
354 291       0.0000000000000000e+00
354 292       0.0000000000000000e+00
354 293       0.0000000000000000e+00
354 294       0.0000000000000000e+00
354 295       0.0000000000000000e+00
354 296       0.0000000000000000e+00
354 297       0.0000000000000000e+00
354 304       0.0000000000000000e+00
354 305       0.0000000000000000e+00
354 306       0.0000000000000000e+00
354 307       0.0000000000000000e+00
354 308       0.0000000000000000e+00
354 309       0.0000000000000000e+00
354 310       0.0000000000000000e+00
354 311       0.0000000000000000e+00
354 312       0.0000000000000000e+00
354 334       0.0000000000000000e+00
354 335       0.0000000000000000e+00
354 336       0.0000000000000000e+00
354 337       0.0000000000000000e+00
354 338       0.0000000000000000e+00
354 339       0.0000000000000000e+00
354 340       0.0000000000000000e+00
354 341       0.0000000000000000e+00
354 342       0.0000000000000000e+00
354 349       0.0000000000000000e+00
354 350       0.0000000000000000e+00
354 351       0.0000000000000000e+00
354 352       0.0000000000000000e+00
354 353       0.0000000000000000e+00
354 355       0.0000000000000000e+00
354 356       0.0000000000000000e+00
354 357       0.0000000000000000e+00
354 364       0.0000000000000000e+00
354 365       0.0000000000000000e+00
354 366       0.0000000000000000e+00
354 367       0.0000000000000000e+00
354 368       0.0000000000000000e+00
354 369       0.0000000000000000e+00
354 370       0.0000000000000000e+00
354 371       0.0000000000000000e+00
354 372       0.0000000000000000e+00
355 355       0.0000000000000000e+00
355 277       0.0000000000000000e+00
355 278       0.0000000000000000e+00
355 279       0.0000000000000000e+00
355 280       0.0000000000000000e+00
355 281       0.0000000000000000e+00
355 282       0.0000000000000000e+00
355 283       0.0000000000000000e+00
355 284       0.0000000000000000e+00
355 285       0.0000000000000000e+00
355 292       0.0000000000000000e+00
355 293       0.0000000000000000e+00
355 294       0.0000000000000000e+00
355 295       0.0000000000000000e+00
355 296       0.0000000000000000e+00
355 297       0.0000000000000000e+00
355 298       0.0000000000000000e+00
355 299       0.0000000000000000e+00
355 300       0.0000000000000000e+00
355 307       0.0000000000000000e+00
355 308       0.0000000000000000e+00
355 309       0.0000000000000000e+00
355 310       0.0000000000000000e+00
355 311       0.0000000000000000e+00
355 312       0.0000000000000000e+00
355 313       0.0000000000000000e+00
355 314       0.0000000000000000e+00
355 315       0.0000000000000000e+00
355 337       0.0000000000000000e+00
355 338       0.0000000000000000e+00
355 339       0.0000000000000000e+00
355 340       0.0000000000000000e+00
355 341       0.0000000000000000e+00
355 342       0.0000000000000000e+00
355 343       0.0000000000000000e+00
355 344       0.0000000000000000e+00
355 345       0.0000000000000000e+00
355 352       0.0000000000000000e+00
355 353       0.0000000000000000e+00
355 354       0.0000000000000000e+00
355 356       0.0000000000000000e+00
355 357       0.0000000000000000e+00
355 358       0.0000000000000000e+00
355 359       0.0000000000000000e+00
355 360       0.0000000000000000e+00
355 367       0.0000000000000000e+00
355 368       0.0000000000000000e+00
355 369       0.0000000000000000e+00
355 370       0.0000000000000000e+00
355 371       0.0000000000000000e+00
355 372       0.0000000000000000e+00
355 373       0.0000000000000000e+00
355 374       0.0000000000000000e+00
355 375       0.0000000000000000e+00
356 356       0.0000000000000000e+00
356 277       0.0000000000000000e+00
356 278       0.0000000000000000e+00
356 279       0.0000000000000000e+00
356 280       0.0000000000000000e+00
356 281       0.0000000000000000e+00
356 282       0.0000000000000000e+00
356 283       0.0000000000000000e+00
356 284       0.0000000000000000e+00
356 285       0.0000000000000000e+00
356 292       0.0000000000000000e+00
356 293       0.0000000000000000e+00
356 294       0.0000000000000000e+00
356 295       0.0000000000000000e+00
356 296       0.0000000000000000e+00
356 297       0.0000000000000000e+00
356 298       0.0000000000000000e+00
356 299       0.0000000000000000e+00
356 300       0.0000000000000000e+00
356 307       0.0000000000000000e+00
356 308       0.0000000000000000e+00
356 309       0.0000000000000000e+00
356 310       0.0000000000000000e+00
356 311       0.0000000000000000e+00
356 312       0.0000000000000000e+00
356 313       0.0000000000000000e+00
356 314       0.0000000000000000e+00
356 315       0.0000000000000000e+00
356 337       0.0000000000000000e+00
356 338       0.0000000000000000e+00
356 339       0.0000000000000000e+00
356 340       0.0000000000000000e+00
356 341       0.0000000000000000e+00
356 342       0.0000000000000000e+00
356 343       0.0000000000000000e+00
356 344       0.0000000000000000e+00
356 345       0.0000000000000000e+00
356 352       0.0000000000000000e+00
356 353       0.0000000000000000e+00
356 354       0.0000000000000000e+00
356 355       0.0000000000000000e+00
356 357       0.0000000000000000e+00
356 358       0.0000000000000000e+00
356 359       0.0000000000000000e+00
356 360       0.0000000000000000e+00
356 367       0.0000000000000000e+00
356 368       0.0000000000000000e+00
356 369       0.0000000000000000e+00
356 370       0.0000000000000000e+00
356 371       0.0000000000000000e+00
356 372       0.0000000000000000e+00
356 373       0.0000000000000000e+00
356 374       0.0000000000000000e+00
356 375       0.0000000000000000e+00
357 357       0.0000000000000000e+00
357 277       0.0000000000000000e+00
357 278       0.0000000000000000e+00
357 279       0.0000000000000000e+00
357 280       0.0000000000000000e+00
357 281       0.0000000000000000e+00
357 282       0.0000000000000000e+00
357 283       0.0000000000000000e+00
357 284       0.0000000000000000e+00
357 285       0.0000000000000000e+00
357 292       0.0000000000000000e+00
357 293       0.0000000000000000e+00
357 294       0.0000000000000000e+00
357 295       0.0000000000000000e+00
357 296       0.0000000000000000e+00
357 297       0.0000000000000000e+00
357 298       0.0000000000000000e+00
357 299       0.0000000000000000e+00
357 300       0.0000000000000000e+00
357 307       0.0000000000000000e+00
357 308       0.0000000000000000e+00
357 309       0.0000000000000000e+00
357 310       0.0000000000000000e+00
357 311       0.0000000000000000e+00
357 312       0.0000000000000000e+00
357 313       0.0000000000000000e+00
357 314       0.0000000000000000e+00
357 315       0.0000000000000000e+00
357 337       0.0000000000000000e+00
357 338       0.0000000000000000e+00
357 339       0.0000000000000000e+00
357 340       0.0000000000000000e+00
357 341       0.0000000000000000e+00
357 342       0.0000000000000000e+00
357 343       0.0000000000000000e+00
357 344       0.0000000000000000e+00
357 345       0.0000000000000000e+00
357 352       0.0000000000000000e+00
357 353       0.0000000000000000e+00
357 354       0.0000000000000000e+00
357 355       0.0000000000000000e+00
357 356       0.0000000000000000e+00
357 358       0.0000000000000000e+00
357 359       0.0000000000000000e+00
357 360       0.0000000000000000e+00
357 367       0.0000000000000000e+00
357 368       0.0000000000000000e+00
357 369       0.0000000000000000e+00
357 370       0.0000000000000000e+00
357 371       0.0000000000000000e+00
357 372       0.0000000000000000e+00
357 373       0.0000000000000000e+00
357 374       0.0000000000000000e+00
357 375       0.0000000000000000e+00
358 358       0.0000000000000000e+00
358 280       0.0000000000000000e+00
358 281       0.0000000000000000e+00
358 282       0.0000000000000000e+00
358 283       0.0000000000000000e+00
358 284       0.0000000000000000e+00
358 285       0.0000000000000000e+00
358 295       0.0000000000000000e+00
358 296       0.0000000000000000e+00
358 297       0.0000000000000000e+00
358 298       0.0000000000000000e+00
358 299       0.0000000000000000e+00
358 300       0.0000000000000000e+00
358 310       0.0000000000000000e+00
358 311       0.0000000000000000e+00
358 312       0.0000000000000000e+00
358 313       0.0000000000000000e+00
358 314       0.0000000000000000e+00
358 315       0.0000000000000000e+00
358 340       0.0000000000000000e+00
358 341       0.0000000000000000e+00
358 342       0.0000000000000000e+00
358 343       0.0000000000000000e+00
358 344       0.0000000000000000e+00
358 345       0.0000000000000000e+00
358 355       0.0000000000000000e+00
358 356       0.0000000000000000e+00
358 357       0.0000000000000000e+00
358 359       0.0000000000000000e+00
358 360       0.0000000000000000e+00
358 370       0.0000000000000000e+00
358 371       0.0000000000000000e+00
358 372       0.0000000000000000e+00
358 373       0.0000000000000000e+00
358 374       0.0000000000000000e+00
358 375       0.0000000000000000e+00
359 359       0.0000000000000000e+00
359 280       0.0000000000000000e+00
359 281       0.0000000000000000e+00
359 282       0.0000000000000000e+00
359 283       0.0000000000000000e+00
359 284       0.0000000000000000e+00
359 285       0.0000000000000000e+00
359 295       0.0000000000000000e+00
359 296       0.0000000000000000e+00
359 297       0.0000000000000000e+00
359 298       0.0000000000000000e+00
359 299       0.0000000000000000e+00
359 300       0.0000000000000000e+00
359 310       0.0000000000000000e+00
359 311       0.0000000000000000e+00
359 312       0.0000000000000000e+00
359 313       0.0000000000000000e+00
359 314       0.0000000000000000e+00
359 315       0.0000000000000000e+00
359 340       0.0000000000000000e+00
359 341       0.0000000000000000e+00
359 342       0.0000000000000000e+00
359 343       0.0000000000000000e+00
359 344       0.0000000000000000e+00
359 345       0.0000000000000000e+00
359 355       0.0000000000000000e+00
359 356       0.0000000000000000e+00
359 357       0.0000000000000000e+00
359 358       0.0000000000000000e+00
359 360       0.0000000000000000e+00
359 370       0.0000000000000000e+00
359 371       0.0000000000000000e+00
359 372       0.0000000000000000e+00
359 373       0.0000000000000000e+00
359 374       0.0000000000000000e+00
359 375       0.0000000000000000e+00
360 360       0.0000000000000000e+00
360 280       0.0000000000000000e+00
360 281       0.0000000000000000e+00
360 282       0.0000000000000000e+00
360 283       0.0000000000000000e+00
360 284       0.0000000000000000e+00
360 285       0.0000000000000000e+00
360 295       0.0000000000000000e+00
360 296       0.0000000000000000e+00
360 297       0.0000000000000000e+00
360 298       0.0000000000000000e+00
360 299       0.0000000000000000e+00
360 300       0.0000000000000000e+00
360 310       0.0000000000000000e+00
360 311       0.0000000000000000e+00
360 312       0.0000000000000000e+00
360 313       0.0000000000000000e+00
360 314       0.0000000000000000e+00
360 315       0.0000000000000000e+00
360 340       0.0000000000000000e+00
360 341       0.0000000000000000e+00
360 342       0.0000000000000000e+00
360 343       0.0000000000000000e+00
360 344       0.0000000000000000e+00
360 345       0.0000000000000000e+00
360 355       0.0000000000000000e+00
360 356       0.0000000000000000e+00
360 357       0.0000000000000000e+00
360 358       0.0000000000000000e+00
360 359       0.0000000000000000e+00
360 370       0.0000000000000000e+00
360 371       0.0000000000000000e+00
360 372       0.0000000000000000e+00
360 373       0.0000000000000000e+00
360 374       0.0000000000000000e+00
360 375       0.0000000000000000e+00
361 361       0.0000000000000000e+00
361 286       0.0000000000000000e+00
361 287       0.0000000000000000e+00
361 288       0.0000000000000000e+00
361 289       0.0000000000000000e+00
361 290       0.0000000000000000e+00
361 291       0.0000000000000000e+00
361 301       0.0000000000000000e+00
361 302       0.0000000000000000e+00
361 303       0.0000000000000000e+00
361 304       0.0000000000000000e+00
361 305       0.0000000000000000e+00
361 306       0.0000000000000000e+00
361 346       0.0000000000000000e+00
361 347       0.0000000000000000e+00
361 348       0.0000000000000000e+00
361 349       0.0000000000000000e+00
361 350       0.0000000000000000e+00
361 351       0.0000000000000000e+00
361 362       0.0000000000000000e+00
361 363       0.0000000000000000e+00
361 364       0.0000000000000000e+00
361 365       0.0000000000000000e+00
361 366       0.0000000000000000e+00
361 400       0.0000000000000000e+00
361 401       0.0000000000000000e+00
361 402       0.0000000000000000e+00
361 427       0.0000000000000000e+00
361 428       0.0000000000000000e+00
361 429       0.0000000000000000e+00
361 454       0.0000000000000000e+00
361 455       0.0000000000000000e+00
361 456       0.0000000000000000e+00
362 362       0.0000000000000000e+00
362 286       0.0000000000000000e+00
362 287       0.0000000000000000e+00
362 288       0.0000000000000000e+00
362 289       0.0000000000000000e+00
362 290       0.0000000000000000e+00
362 291       0.0000000000000000e+00
362 301       0.0000000000000000e+00
362 302       0.0000000000000000e+00
362 303       0.0000000000000000e+00
362 304       0.0000000000000000e+00
362 305       0.0000000000000000e+00
362 306       0.0000000000000000e+00
362 346       0.0000000000000000e+00
362 347       0.0000000000000000e+00
362 348       0.0000000000000000e+00
362 349       0.0000000000000000e+00
362 350       0.0000000000000000e+00
362 351       0.0000000000000000e+00
362 361       0.0000000000000000e+00
362 363       0.0000000000000000e+00
362 364       0.0000000000000000e+00
362 365       0.0000000000000000e+00
362 366       0.0000000000000000e+00
362 400       0.0000000000000000e+00
362 401       0.0000000000000000e+00
362 402       0.0000000000000000e+00
362 427       0.0000000000000000e+00
362 428       0.0000000000000000e+00
362 429       0.0000000000000000e+00
362 454       0.0000000000000000e+00
362 455       0.0000000000000000e+00
362 456       0.0000000000000000e+00
363 363       0.0000000000000000e+00
363 286       0.0000000000000000e+00
363 287       0.0000000000000000e+00
363 288       0.0000000000000000e+00
363 289       0.0000000000000000e+00
363 290       0.0000000000000000e+00
363 291       0.0000000000000000e+00
363 301       0.0000000000000000e+00
363 302       0.0000000000000000e+00
363 303       0.0000000000000000e+00
363 304       0.0000000000000000e+00
363 305       0.0000000000000000e+00
363 306       0.0000000000000000e+00
363 346       0.0000000000000000e+00
363 347       0.0000000000000000e+00
363 348       0.0000000000000000e+00
363 349       0.0000000000000000e+00
363 350       0.0000000000000000e+00
363 351       0.0000000000000000e+00
363 361       0.0000000000000000e+00
363 362       0.0000000000000000e+00
363 364       0.0000000000000000e+00
363 365       0.0000000000000000e+00
363 366       0.0000000000000000e+00
363 400       0.0000000000000000e+00
363 401       0.0000000000000000e+00
363 402       0.0000000000000000e+00
363 427       0.0000000000000000e+00
363 428       0.0000000000000000e+00
363 429       0.0000000000000000e+00
363 454       0.0000000000000000e+00
363 455       0.0000000000000000e+00
363 456       0.0000000000000000e+00
364 364       0.0000000000000000e+00
364 286       0.0000000000000000e+00
364 287       0.0000000000000000e+00
364 288       0.0000000000000000e+00
364 289       0.0000000000000000e+00
364 290       0.0000000000000000e+00
364 291       0.0000000000000000e+00
364 292       0.0000000000000000e+00
364 293       0.0000000000000000e+00
364 294       0.0000000000000000e+00
364 301       0.0000000000000000e+00
364 302       0.0000000000000000e+00
364 303       0.0000000000000000e+00
364 304       0.0000000000000000e+00
364 305       0.0000000000000000e+00
364 306       0.0000000000000000e+00
364 307       0.0000000000000000e+00
364 308       0.0000000000000000e+00
364 309       0.0000000000000000e+00
364 346       0.0000000000000000e+00
364 347       0.0000000000000000e+00
364 348       0.0000000000000000e+00
364 349       0.0000000000000000e+00
364 350       0.0000000000000000e+00
364 351       0.0000000000000000e+00
364 352       0.0000000000000000e+00
364 353       0.0000000000000000e+00
364 354       0.0000000000000000e+00
364 361       0.0000000000000000e+00
364 362       0.0000000000000000e+00
364 363       0.0000000000000000e+00
364 365       0.0000000000000000e+00
364 366       0.0000000000000000e+00
364 367       0.0000000000000000e+00
364 368       0.0000000000000000e+00
364 369       0.0000000000000000e+00
364 427       0.0000000000000000e+00
364 428       0.0000000000000000e+00
364 429       0.0000000000000000e+00
365 365       0.0000000000000000e+00
365 286       0.0000000000000000e+00
365 287       0.0000000000000000e+00
365 288       0.0000000000000000e+00
365 289       0.0000000000000000e+00
365 290       0.0000000000000000e+00
365 291       0.0000000000000000e+00
365 292       0.0000000000000000e+00
365 293       0.0000000000000000e+00
365 294       0.0000000000000000e+00
365 301       0.0000000000000000e+00
365 302       0.0000000000000000e+00
365 303       0.0000000000000000e+00
365 304       0.0000000000000000e+00
365 305       0.0000000000000000e+00
365 306       0.0000000000000000e+00
365 307       0.0000000000000000e+00
365 308       0.0000000000000000e+00
365 309       0.0000000000000000e+00
365 346       0.0000000000000000e+00
365 347       0.0000000000000000e+00
365 348       0.0000000000000000e+00
365 349       0.0000000000000000e+00
365 350       0.0000000000000000e+00
365 351       0.0000000000000000e+00
365 352       0.0000000000000000e+00
365 353       0.0000000000000000e+00
365 354       0.0000000000000000e+00
365 361       0.0000000000000000e+00
365 362       0.0000000000000000e+00
365 363       0.0000000000000000e+00
365 364       0.0000000000000000e+00
365 366       0.0000000000000000e+00
365 367       0.0000000000000000e+00
365 368       0.0000000000000000e+00
365 369       0.0000000000000000e+00
365 427       0.0000000000000000e+00
365 428       0.0000000000000000e+00
365 429       0.0000000000000000e+00
366 366       0.0000000000000000e+00
366 286       0.0000000000000000e+00
366 287       0.0000000000000000e+00
366 288       0.0000000000000000e+00
366 289       0.0000000000000000e+00
366 290       0.0000000000000000e+00
366 291       0.0000000000000000e+00
366 292       0.0000000000000000e+00
366 293       0.0000000000000000e+00
366 294       0.0000000000000000e+00
366 301       0.0000000000000000e+00
366 302       0.0000000000000000e+00
366 303       0.0000000000000000e+00
366 304       0.0000000000000000e+00
366 305       0.0000000000000000e+00
366 306       0.0000000000000000e+00
366 307       0.0000000000000000e+00
366 308       0.0000000000000000e+00
366 309       0.0000000000000000e+00
366 346       0.0000000000000000e+00
366 347       0.0000000000000000e+00
366 348       0.0000000000000000e+00
366 349       0.0000000000000000e+00
366 350       0.0000000000000000e+00
366 351       0.0000000000000000e+00
366 352       0.0000000000000000e+00
366 353       0.0000000000000000e+00
366 354       0.0000000000000000e+00
366 361       0.0000000000000000e+00
366 362       0.0000000000000000e+00
366 363       0.0000000000000000e+00
366 364       0.0000000000000000e+00
366 365       0.0000000000000000e+00
366 367       0.0000000000000000e+00
366 368       0.0000000000000000e+00
366 369       0.0000000000000000e+00
366 427       0.0000000000000000e+00
366 428       0.0000000000000000e+00
366 429       0.0000000000000000e+00
367 367       0.0000000000000000e+00
367 289       0.0000000000000000e+00
367 290       0.0000000000000000e+00
367 291       0.0000000000000000e+00
367 292       0.0000000000000000e+00
367 293       0.0000000000000000e+00
367 294       0.0000000000000000e+00
367 295       0.0000000000000000e+00
367 296       0.0000000000000000e+00
367 297       0.0000000000000000e+00
367 304       0.0000000000000000e+00
367 305       0.0000000000000000e+00
367 306       0.0000000000000000e+00
367 307       0.0000000000000000e+00
367 308       0.0000000000000000e+00
367 309       0.0000000000000000e+00
367 310       0.0000000000000000e+00
367 311       0.0000000000000000e+00
367 312       0.0000000000000000e+00
367 349       0.0000000000000000e+00
367 350       0.0000000000000000e+00
367 351       0.0000000000000000e+00
367 352       0.0000000000000000e+00
367 353       0.0000000000000000e+00
367 354       0.0000000000000000e+00
367 355       0.0000000000000000e+00
367 356       0.0000000000000000e+00
367 357       0.0000000000000000e+00
367 364       0.0000000000000000e+00
367 365       0.0000000000000000e+00
367 366       0.0000000000000000e+00
367 368       0.0000000000000000e+00
367 369       0.0000000000000000e+00
367 370       0.0000000000000000e+00
367 371       0.0000000000000000e+00
367 372       0.0000000000000000e+00
368 368       0.0000000000000000e+00
368 289       0.0000000000000000e+00
368 290       0.0000000000000000e+00
368 291       0.0000000000000000e+00
368 292       0.0000000000000000e+00
368 293       0.0000000000000000e+00
368 294       0.0000000000000000e+00
368 295       0.0000000000000000e+00
368 296       0.0000000000000000e+00
368 297       0.0000000000000000e+00
368 304       0.0000000000000000e+00
368 305       0.0000000000000000e+00
368 306       0.0000000000000000e+00
368 307       0.0000000000000000e+00
368 308       0.0000000000000000e+00
368 309       0.0000000000000000e+00
368 310       0.0000000000000000e+00
368 311       0.0000000000000000e+00
368 312       0.0000000000000000e+00
368 349       0.0000000000000000e+00
368 350       0.0000000000000000e+00
368 351       0.0000000000000000e+00
368 352       0.0000000000000000e+00
368 353       0.0000000000000000e+00
368 354       0.0000000000000000e+00
368 355       0.0000000000000000e+00
368 356       0.0000000000000000e+00
368 357       0.0000000000000000e+00
368 364       0.0000000000000000e+00
368 365       0.0000000000000000e+00
368 366       0.0000000000000000e+00
368 367       0.0000000000000000e+00
368 369       0.0000000000000000e+00
368 370       0.0000000000000000e+00
368 371       0.0000000000000000e+00
368 372       0.0000000000000000e+00
369 369       0.0000000000000000e+00
369 289       0.0000000000000000e+00
369 290       0.0000000000000000e+00
369 291       0.0000000000000000e+00
369 292       0.0000000000000000e+00
369 293       0.0000000000000000e+00
369 294       0.0000000000000000e+00
369 295       0.0000000000000000e+00
369 296       0.0000000000000000e+00
369 297       0.0000000000000000e+00
369 304       0.0000000000000000e+00
369 305       0.0000000000000000e+00
369 306       0.0000000000000000e+00
369 307       0.0000000000000000e+00
369 308       0.0000000000000000e+00
369 309       0.0000000000000000e+00
369 310       0.0000000000000000e+00
369 311       0.0000000000000000e+00
369 312       0.0000000000000000e+00
369 349       0.0000000000000000e+00
369 350       0.0000000000000000e+00
369 351       0.0000000000000000e+00
369 352       0.0000000000000000e+00
369 353       0.0000000000000000e+00
369 354       0.0000000000000000e+00
369 355       0.0000000000000000e+00
369 356       0.0000000000000000e+00
369 357       0.0000000000000000e+00
369 364       0.0000000000000000e+00
369 365       0.0000000000000000e+00
369 366       0.0000000000000000e+00
369 367       0.0000000000000000e+00
369 368       0.0000000000000000e+00
369 370       0.0000000000000000e+00
369 371       0.0000000000000000e+00
369 372       0.0000000000000000e+00
370 370       0.0000000000000000e+00
370 292       0.0000000000000000e+00
370 293       0.0000000000000000e+00
370 294       0.0000000000000000e+00
370 295       0.0000000000000000e+00
370 296       0.0000000000000000e+00
370 297       0.0000000000000000e+00
370 298       0.0000000000000000e+00
370 299       0.0000000000000000e+00
370 300       0.0000000000000000e+00
370 307       0.0000000000000000e+00
370 308       0.0000000000000000e+00
370 309       0.0000000000000000e+00
370 310       0.0000000000000000e+00
370 311       0.0000000000000000e+00
370 312       0.0000000000000000e+00
370 313       0.0000000000000000e+00
370 314       0.0000000000000000e+00
370 315       0.0000000000000000e+00
370 352       0.0000000000000000e+00
370 353       0.0000000000000000e+00
370 354       0.0000000000000000e+00
370 355       0.0000000000000000e+00
370 356       0.0000000000000000e+00
370 357       0.0000000000000000e+00
370 358       0.0000000000000000e+00
370 359       0.0000000000000000e+00
370 360       0.0000000000000000e+00
370 367       0.0000000000000000e+00
370 368       0.0000000000000000e+00
370 369       0.0000000000000000e+00
370 371       0.0000000000000000e+00
370 372       0.0000000000000000e+00
370 373       0.0000000000000000e+00
370 374       0.0000000000000000e+00
370 375       0.0000000000000000e+00
371 371       0.0000000000000000e+00
371 292       0.0000000000000000e+00
371 293       0.0000000000000000e+00
371 294       0.0000000000000000e+00
371 295       0.0000000000000000e+00
371 296       0.0000000000000000e+00
371 297       0.0000000000000000e+00
371 298       0.0000000000000000e+00
371 299       0.0000000000000000e+00
371 300       0.0000000000000000e+00
371 307       0.0000000000000000e+00
371 308       0.0000000000000000e+00
371 309       0.0000000000000000e+00
371 310       0.0000000000000000e+00
371 311       0.0000000000000000e+00
371 312       0.0000000000000000e+00
371 313       0.0000000000000000e+00
371 314       0.0000000000000000e+00
371 315       0.0000000000000000e+00
371 352       0.0000000000000000e+00
371 353       0.0000000000000000e+00
371 354       0.0000000000000000e+00
371 355       0.0000000000000000e+00
371 356       0.0000000000000000e+00
371 357       0.0000000000000000e+00
371 358       0.0000000000000000e+00
371 359       0.0000000000000000e+00
371 360       0.0000000000000000e+00
371 367       0.0000000000000000e+00
371 368       0.0000000000000000e+00
371 369       0.0000000000000000e+00
371 370       0.0000000000000000e+00
371 372       0.0000000000000000e+00
371 373       0.0000000000000000e+00
371 374       0.0000000000000000e+00
371 375       0.0000000000000000e+00
372 372       0.0000000000000000e+00
372 292       0.0000000000000000e+00
372 293       0.0000000000000000e+00
372 294       0.0000000000000000e+00
372 295       0.0000000000000000e+00
372 296       0.0000000000000000e+00
372 297       0.0000000000000000e+00
372 298       0.0000000000000000e+00
372 299       0.0000000000000000e+00
372 300       0.0000000000000000e+00
372 307       0.0000000000000000e+00
372 308       0.0000000000000000e+00
372 309       0.0000000000000000e+00
372 310       0.0000000000000000e+00
372 311       0.0000000000000000e+00
372 312       0.0000000000000000e+00
372 313       0.0000000000000000e+00
372 314       0.0000000000000000e+00
372 315       0.0000000000000000e+00
372 352       0.0000000000000000e+00
372 353       0.0000000000000000e+00
372 354       0.0000000000000000e+00
372 355       0.0000000000000000e+00
372 356       0.0000000000000000e+00
372 357       0.0000000000000000e+00
372 358       0.0000000000000000e+00
372 359       0.0000000000000000e+00
372 360       0.0000000000000000e+00
372 367       0.0000000000000000e+00
372 368       0.0000000000000000e+00
372 369       0.0000000000000000e+00
372 370       0.0000000000000000e+00
372 371       0.0000000000000000e+00
372 373       0.0000000000000000e+00
372 374       0.0000000000000000e+00
372 375       0.0000000000000000e+00
373 373       0.0000000000000000e+00
373 295       0.0000000000000000e+00
373 296       0.0000000000000000e+00
373 297       0.0000000000000000e+00
373 298       0.0000000000000000e+00
373 299       0.0000000000000000e+00
373 300       0.0000000000000000e+00
373 310       0.0000000000000000e+00
373 311       0.0000000000000000e+00
373 312       0.0000000000000000e+00
373 313       0.0000000000000000e+00
373 314       0.0000000000000000e+00
373 315       0.0000000000000000e+00
373 355       0.0000000000000000e+00
373 356       0.0000000000000000e+00
373 357       0.0000000000000000e+00
373 358       0.0000000000000000e+00
373 359       0.0000000000000000e+00
373 360       0.0000000000000000e+00
373 370       0.0000000000000000e+00
373 371       0.0000000000000000e+00
373 372       0.0000000000000000e+00
373 374       0.0000000000000000e+00
373 375       0.0000000000000000e+00
374 374       0.0000000000000000e+00
374 295       0.0000000000000000e+00
374 296       0.0000000000000000e+00
374 297       0.0000000000000000e+00
374 298       0.0000000000000000e+00
374 299       0.0000000000000000e+00
374 300       0.0000000000000000e+00
374 310       0.0000000000000000e+00
374 311       0.0000000000000000e+00
374 312       0.0000000000000000e+00
374 313       0.0000000000000000e+00
374 314       0.0000000000000000e+00
374 315       0.0000000000000000e+00
374 355       0.0000000000000000e+00
374 356       0.0000000000000000e+00
374 357       0.0000000000000000e+00
374 358       0.0000000000000000e+00
374 359       0.0000000000000000e+00
374 360       0.0000000000000000e+00
374 370       0.0000000000000000e+00
374 371       0.0000000000000000e+00
374 372       0.0000000000000000e+00
374 373       0.0000000000000000e+00
374 375       0.0000000000000000e+00
375 375       0.0000000000000000e+00
375 295       0.0000000000000000e+00
375 296       0.0000000000000000e+00
375 297       0.0000000000000000e+00
375 298       0.0000000000000000e+00
375 299       0.0000000000000000e+00
375 300       0.0000000000000000e+00
375 310       0.0000000000000000e+00
375 311       0.0000000000000000e+00
375 312       0.0000000000000000e+00
375 313       0.0000000000000000e+00
375 314       0.0000000000000000e+00
375 315       0.0000000000000000e+00
375 355       0.0000000000000000e+00
375 356       0.0000000000000000e+00
375 357       0.0000000000000000e+00
375 358       0.0000000000000000e+00
375 359       0.0000000000000000e+00
375 360       0.0000000000000000e+00
375 370       0.0000000000000000e+00
375 371       0.0000000000000000e+00
375 372       0.0000000000000000e+00
375 373       0.0000000000000000e+00
375 374       0.0000000000000000e+00
376 376       0.0000000000000000e+00
376 13       0.0000000000000000e+00
376 14       0.0000000000000000e+00
376 15       0.0000000000000000e+00
376 28       0.0000000000000000e+00
376 29       0.0000000000000000e+00
376 30       0.0000000000000000e+00
376 58       0.0000000000000000e+00
376 59       0.0000000000000000e+00
376 60       0.0000000000000000e+00
376 73       0.0000000000000000e+00
376 74       0.0000000000000000e+00
376 75       0.0000000000000000e+00
376 136       0.0000000000000000e+00
376 137       0.0000000000000000e+00
376 138       0.0000000000000000e+00
376 151       0.0000000000000000e+00
376 152       0.0000000000000000e+00
376 153       0.0000000000000000e+00
376 196       0.0000000000000000e+00
376 197       0.0000000000000000e+00
376 198       0.0000000000000000e+00
376 211       0.0000000000000000e+00
376 212       0.0000000000000000e+00
376 213       0.0000000000000000e+00
376 377       0.0000000000000000e+00
376 378       0.0000000000000000e+00
376 403       0.0000000000000000e+00
376 404       0.0000000000000000e+00
376 405       0.0000000000000000e+00
376 430       0.0000000000000000e+00
376 431       0.0000000000000000e+00
376 432       0.0000000000000000e+00
377 377       0.0000000000000000e+00
377 13       0.0000000000000000e+00
377 14       0.0000000000000000e+00
377 15       0.0000000000000000e+00
377 28       0.0000000000000000e+00
377 29       0.0000000000000000e+00
377 30       0.0000000000000000e+00
377 58       0.0000000000000000e+00
377 59       0.0000000000000000e+00
377 60       0.0000000000000000e+00
377 73       0.0000000000000000e+00
377 74       0.0000000000000000e+00
377 75       0.0000000000000000e+00
377 136       0.0000000000000000e+00
377 137       0.0000000000000000e+00
377 138       0.0000000000000000e+00
377 151       0.0000000000000000e+00
377 152       0.0000000000000000e+00
377 153       0.0000000000000000e+00
377 196       0.0000000000000000e+00
377 197       0.0000000000000000e+00
377 198       0.0000000000000000e+00
377 211       0.0000000000000000e+00
377 212       0.0000000000000000e+00
377 213       0.0000000000000000e+00
377 376       0.0000000000000000e+00
377 378       0.0000000000000000e+00
377 403       0.0000000000000000e+00
377 404       0.0000000000000000e+00
377 405       0.0000000000000000e+00
377 430       0.0000000000000000e+00
377 431       0.0000000000000000e+00
377 432       0.0000000000000000e+00
378 378       0.0000000000000000e+00
378 13       0.0000000000000000e+00
378 14       0.0000000000000000e+00
378 15       0.0000000000000000e+00
378 28       0.0000000000000000e+00
378 29       0.0000000000000000e+00
378 30       0.0000000000000000e+00
378 58       0.0000000000000000e+00
378 59       0.0000000000000000e+00
378 60       0.0000000000000000e+00
378 73       0.0000000000000000e+00
378 74       0.0000000000000000e+00
378 75       0.0000000000000000e+00
378 136       0.0000000000000000e+00
378 137       0.0000000000000000e+00
378 138       0.0000000000000000e+00
378 151       0.0000000000000000e+00
378 152       0.0000000000000000e+00
378 153       0.0000000000000000e+00
378 196       0.0000000000000000e+00
378 197       0.0000000000000000e+00
378 198       0.0000000000000000e+00
378 211       0.0000000000000000e+00
378 212       0.0000000000000000e+00
378 213       0.0000000000000000e+00
378 376       0.0000000000000000e+00
378 377       0.0000000000000000e+00
378 403       0.0000000000000000e+00
378 404       0.0000000000000000e+00
378 405       0.0000000000000000e+00
378 430       0.0000000000000000e+00
378 431       0.0000000000000000e+00
378 432       0.0000000000000000e+00
379 379       0.0000000000000000e+00
379 13       0.0000000000000000e+00
379 14       0.0000000000000000e+00
379 15       0.0000000000000000e+00
379 28       0.0000000000000000e+00
379 29       0.0000000000000000e+00
379 30       0.0000000000000000e+00
379 43       0.0000000000000000e+00
379 44       0.0000000000000000e+00
379 45       0.0000000000000000e+00
379 58       0.0000000000000000e+00
379 59       0.0000000000000000e+00
379 60       0.0000000000000000e+00
379 73       0.0000000000000000e+00
379 74       0.0000000000000000e+00
379 75       0.0000000000000000e+00
379 88       0.0000000000000000e+00
379 89       0.0000000000000000e+00
379 90       0.0000000000000000e+00
379 151       0.0000000000000000e+00
379 152       0.0000000000000000e+00
379 153       0.0000000000000000e+00
379 166       0.0000000000000000e+00
379 167       0.0000000000000000e+00
379 168       0.0000000000000000e+00
379 211       0.0000000000000000e+00
379 212       0.0000000000000000e+00
379 213       0.0000000000000000e+00
379 226       0.0000000000000000e+00
379 227       0.0000000000000000e+00
379 228       0.0000000000000000e+00
379 380       0.0000000000000000e+00
379 381       0.0000000000000000e+00
379 406       0.0000000000000000e+00
379 407       0.0000000000000000e+00
379 408       0.0000000000000000e+00
379 433       0.0000000000000000e+00
379 434       0.0000000000000000e+00
379 435       0.0000000000000000e+00
380 380       0.0000000000000000e+00
380 13       0.0000000000000000e+00
380 14       0.0000000000000000e+00
380 15       0.0000000000000000e+00
380 28       0.0000000000000000e+00
380 29       0.0000000000000000e+00
380 30       0.0000000000000000e+00
380 43       0.0000000000000000e+00
380 44       0.0000000000000000e+00
380 45       0.0000000000000000e+00
380 58       0.0000000000000000e+00
380 59       0.0000000000000000e+00
380 60       0.0000000000000000e+00
380 73       0.0000000000000000e+00
380 74       0.0000000000000000e+00
380 75       0.0000000000000000e+00
380 88       0.0000000000000000e+00
380 89       0.0000000000000000e+00
380 90       0.0000000000000000e+00
380 151       0.0000000000000000e+00
380 152       0.0000000000000000e+00
380 153       0.0000000000000000e+00
380 166       0.0000000000000000e+00
380 167       0.0000000000000000e+00
380 168       0.0000000000000000e+00
380 211       0.0000000000000000e+00
380 212       0.0000000000000000e+00
380 213       0.0000000000000000e+00
380 226       0.0000000000000000e+00
380 227       0.0000000000000000e+00
380 228       0.0000000000000000e+00
380 379       0.0000000000000000e+00
380 381       0.0000000000000000e+00
380 406       0.0000000000000000e+00
380 407       0.0000000000000000e+00
380 408       0.0000000000000000e+00
380 433       0.0000000000000000e+00
380 434       0.0000000000000000e+00
380 435       0.0000000000000000e+00
381 381       0.0000000000000000e+00
381 13       0.0000000000000000e+00
381 14       0.0000000000000000e+00
381 15       0.0000000000000000e+00
381 28       0.0000000000000000e+00
381 29       0.0000000000000000e+00
381 30       0.0000000000000000e+00
381 43       0.0000000000000000e+00
381 44       0.0000000000000000e+00
381 45       0.0000000000000000e+00
381 58       0.0000000000000000e+00
381 59       0.0000000000000000e+00
381 60       0.0000000000000000e+00
381 73       0.0000000000000000e+00
381 74       0.0000000000000000e+00
381 75       0.0000000000000000e+00
381 88       0.0000000000000000e+00
381 89       0.0000000000000000e+00
381 90       0.0000000000000000e+00
381 151       0.0000000000000000e+00
381 152       0.0000000000000000e+00
381 153       0.0000000000000000e+00
381 166       0.0000000000000000e+00
381 167       0.0000000000000000e+00
381 168       0.0000000000000000e+00
381 211       0.0000000000000000e+00
381 212       0.0000000000000000e+00
381 213       0.0000000000000000e+00
381 226       0.0000000000000000e+00
381 227       0.0000000000000000e+00
381 228       0.0000000000000000e+00
381 379       0.0000000000000000e+00
381 380       0.0000000000000000e+00
381 406       0.0000000000000000e+00
381 407       0.0000000000000000e+00
381 408       0.0000000000000000e+00
381 433       0.0000000000000000e+00
381 434       0.0000000000000000e+00
381 435       0.0000000000000000e+00
382 382       0.0000000000000000e+00
382 28       0.0000000000000000e+00
382 29       0.0000000000000000e+00
382 30       0.0000000000000000e+00
382 43       0.0000000000000000e+00
382 44       0.0000000000000000e+00
382 45       0.0000000000000000e+00
382 73       0.0000000000000000e+00
382 74       0.0000000000000000e+00
382 75       0.0000000000000000e+00
382 88       0.0000000000000000e+00
382 89       0.0000000000000000e+00
382 90       0.0000000000000000e+00
382 166       0.0000000000000000e+00
382 167       0.0000000000000000e+00
382 168       0.0000000000000000e+00
382 181       0.0000000000000000e+00
382 182       0.0000000000000000e+00
382 183       0.0000000000000000e+00
382 226       0.0000000000000000e+00
382 227       0.0000000000000000e+00
382 228       0.0000000000000000e+00
382 241       0.0000000000000000e+00
382 242       0.0000000000000000e+00
382 243       0.0000000000000000e+00
382 383       0.0000000000000000e+00
382 384       0.0000000000000000e+00
382 409       0.0000000000000000e+00
382 410       0.0000000000000000e+00
382 411       0.0000000000000000e+00
382 436       0.0000000000000000e+00
382 437       0.0000000000000000e+00
382 438       0.0000000000000000e+00
383 383       0.0000000000000000e+00
383 28       0.0000000000000000e+00
383 29       0.0000000000000000e+00
383 30       0.0000000000000000e+00
383 43       0.0000000000000000e+00
383 44       0.0000000000000000e+00
383 45       0.0000000000000000e+00
383 73       0.0000000000000000e+00
383 74       0.0000000000000000e+00
383 75       0.0000000000000000e+00
383 88       0.0000000000000000e+00
383 89       0.0000000000000000e+00
383 90       0.0000000000000000e+00
383 166       0.0000000000000000e+00
383 167       0.0000000000000000e+00
383 168       0.0000000000000000e+00
383 181       0.0000000000000000e+00
383 182       0.0000000000000000e+00
383 183       0.0000000000000000e+00
383 226       0.0000000000000000e+00
383 227       0.0000000000000000e+00
383 228       0.0000000000000000e+00
383 241       0.0000000000000000e+00
383 242       0.0000000000000000e+00
383 243       0.0000000000000000e+00
383 382       0.0000000000000000e+00
383 384       0.0000000000000000e+00
383 409       0.0000000000000000e+00
383 410       0.0000000000000000e+00
383 411       0.0000000000000000e+00
383 436       0.0000000000000000e+00
383 437       0.0000000000000000e+00
383 438       0.0000000000000000e+00
384 384       0.0000000000000000e+00
384 28       0.0000000000000000e+00
384 29       0.0000000000000000e+00
384 30       0.0000000000000000e+00
384 43       0.0000000000000000e+00
384 44       0.0000000000000000e+00
384 45       0.0000000000000000e+00
384 73       0.0000000000000000e+00
384 74       0.0000000000000000e+00
384 75       0.0000000000000000e+00
384 88       0.0000000000000000e+00
384 89       0.0000000000000000e+00
384 90       0.0000000000000000e+00
384 166       0.0000000000000000e+00
384 167       0.0000000000000000e+00
384 168       0.0000000000000000e+00
384 181       0.0000000000000000e+00
384 182       0.0000000000000000e+00
384 183       0.0000000000000000e+00
384 226       0.0000000000000000e+00
384 227       0.0000000000000000e+00
384 228       0.0000000000000000e+00
384 241       0.0000000000000000e+00
384 242       0.0000000000000000e+00
384 243       0.0000000000000000e+00
384 382       0.0000000000000000e+00
384 383       0.0000000000000000e+00
384 409       0.0000000000000000e+00
384 410       0.0000000000000000e+00
384 411       0.0000000000000000e+00
384 436       0.0000000000000000e+00
384 437       0.0000000000000000e+00
384 438       0.0000000000000000e+00
385 385       0.0000000000000000e+00
385 13       0.0000000000000000e+00
385 14       0.0000000000000000e+00
385 15       0.0000000000000000e+00
385 28       0.0000000000000000e+00
385 29       0.0000000000000000e+00
385 30       0.0000000000000000e+00
385 58       0.0000000000000000e+00
385 59       0.0000000000000000e+00
385 60       0.0000000000000000e+00
385 73       0.0000000000000000e+00
385 74       0.0000000000000000e+00
385 75       0.0000000000000000e+00
385 103       0.0000000000000000e+00
385 104       0.0000000000000000e+00
385 105       0.0000000000000000e+00
385 118       0.0000000000000000e+00
385 119       0.0000000000000000e+00
385 120       0.0000000000000000e+00
385 196       0.0000000000000000e+00
385 197       0.0000000000000000e+00
385 198       0.0000000000000000e+00
385 211       0.0000000000000000e+00
385 212       0.0000000000000000e+00
385 213       0.0000000000000000e+00
385 256       0.0000000000000000e+00
385 257       0.0000000000000000e+00
385 258       0.0000000000000000e+00
385 271       0.0000000000000000e+00
385 272       0.0000000000000000e+00
385 273       0.0000000000000000e+00
385 386       0.0000000000000000e+00
385 387       0.0000000000000000e+00
385 412       0.0000000000000000e+00
385 413       0.0000000000000000e+00
385 414       0.0000000000000000e+00
385 439       0.0000000000000000e+00
385 440       0.0000000000000000e+00
385 441       0.0000000000000000e+00
386 386       0.0000000000000000e+00
386 13       0.0000000000000000e+00
386 14       0.0000000000000000e+00
386 15       0.0000000000000000e+00
386 28       0.0000000000000000e+00
386 29       0.0000000000000000e+00
386 30       0.0000000000000000e+00
386 58       0.0000000000000000e+00
386 59       0.0000000000000000e+00
386 60       0.0000000000000000e+00
386 73       0.0000000000000000e+00
386 74       0.0000000000000000e+00
386 75       0.0000000000000000e+00
386 103       0.0000000000000000e+00
386 104       0.0000000000000000e+00
386 105       0.0000000000000000e+00
386 118       0.0000000000000000e+00
386 119       0.0000000000000000e+00
386 120       0.0000000000000000e+00
386 196       0.0000000000000000e+00
386 197       0.0000000000000000e+00
386 198       0.0000000000000000e+00
386 211       0.0000000000000000e+00
386 212       0.0000000000000000e+00
386 213       0.0000000000000000e+00
386 256       0.0000000000000000e+00
386 257       0.0000000000000000e+00
386 258       0.0000000000000000e+00
386 271       0.0000000000000000e+00
386 272       0.0000000000000000e+00
386 273       0.0000000000000000e+00
386 385       0.0000000000000000e+00
386 387       0.0000000000000000e+00
386 412       0.0000000000000000e+00
386 413       0.0000000000000000e+00
386 414       0.0000000000000000e+00
386 439       0.0000000000000000e+00
386 440       0.0000000000000000e+00
386 441       0.0000000000000000e+00
387 387       0.0000000000000000e+00
387 13       0.0000000000000000e+00
387 14       0.0000000000000000e+00
387 15       0.0000000000000000e+00
387 28       0.0000000000000000e+00
387 29       0.0000000000000000e+00
387 30       0.0000000000000000e+00
387 58       0.0000000000000000e+00
387 59       0.0000000000000000e+00
387 60       0.0000000000000000e+00
387 73       0.0000000000000000e+00
387 74       0.0000000000000000e+00
387 75       0.0000000000000000e+00
387 103       0.0000000000000000e+00
387 104       0.0000000000000000e+00
387 105       0.0000000000000000e+00
387 118       0.0000000000000000e+00
387 119       0.0000000000000000e+00
387 120       0.0000000000000000e+00
387 196       0.0000000000000000e+00
387 197       0.0000000000000000e+00
387 198       0.0000000000000000e+00
387 211       0.0000000000000000e+00
387 212       0.0000000000000000e+00
387 213       0.0000000000000000e+00
387 256       0.0000000000000000e+00
387 257       0.0000000000000000e+00
387 258       0.0000000000000000e+00
387 271       0.0000000000000000e+00
387 272       0.0000000000000000e+00
387 273       0.0000000000000000e+00
387 385       0.0000000000000000e+00
387 386       0.0000000000000000e+00
387 412       0.0000000000000000e+00
387 413       0.0000000000000000e+00
387 414       0.0000000000000000e+00
387 439       0.0000000000000000e+00
387 440       0.0000000000000000e+00
387 441       0.0000000000000000e+00
388 388       0.0000000000000000e+00
388 13       0.0000000000000000e+00
388 14       0.0000000000000000e+00
388 15       0.0000000000000000e+00
388 28       0.0000000000000000e+00
388 29       0.0000000000000000e+00
388 30       0.0000000000000000e+00
388 43       0.0000000000000000e+00
388 44       0.0000000000000000e+00
388 45       0.0000000000000000e+00
388 58       0.0000000000000000e+00
388 59       0.0000000000000000e+00
388 60       0.0000000000000000e+00
388 73       0.0000000000000000e+00
388 74       0.0000000000000000e+00
388 75       0.0000000000000000e+00
388 88       0.0000000000000000e+00
388 89       0.0000000000000000e+00
388 90       0.0000000000000000e+00
388 103       0.0000000000000000e+00
388 104       0.0000000000000000e+00
388 105       0.0000000000000000e+00
388 118       0.0000000000000000e+00
388 119       0.0000000000000000e+00
388 120       0.0000000000000000e+00
388 133       0.0000000000000000e+00
388 134       0.0000000000000000e+00
388 135       0.0000000000000000e+00
388 211       0.0000000000000000e+00
388 212       0.0000000000000000e+00
388 213       0.0000000000000000e+00
388 226       0.0000000000000000e+00
388 227       0.0000000000000000e+00
388 228       0.0000000000000000e+00
388 271       0.0000000000000000e+00
388 272       0.0000000000000000e+00
388 273       0.0000000000000000e+00
388 286       0.0000000000000000e+00
388 287       0.0000000000000000e+00
388 288       0.0000000000000000e+00
388 389       0.0000000000000000e+00
388 390       0.0000000000000000e+00
388 415       0.0000000000000000e+00
388 416       0.0000000000000000e+00
388 417       0.0000000000000000e+00
388 442       0.0000000000000000e+00
388 443       0.0000000000000000e+00
388 444       0.0000000000000000e+00
389 389       0.0000000000000000e+00
389 13       0.0000000000000000e+00
389 14       0.0000000000000000e+00
389 15       0.0000000000000000e+00
389 28       0.0000000000000000e+00
389 29       0.0000000000000000e+00
389 30       0.0000000000000000e+00
389 43       0.0000000000000000e+00
389 44       0.0000000000000000e+00
389 45       0.0000000000000000e+00
389 58       0.0000000000000000e+00
389 59       0.0000000000000000e+00
389 60       0.0000000000000000e+00
389 73       0.0000000000000000e+00
389 74       0.0000000000000000e+00
389 75       0.0000000000000000e+00
389 88       0.0000000000000000e+00
389 89       0.0000000000000000e+00
389 90       0.0000000000000000e+00
389 103       0.0000000000000000e+00
389 104       0.0000000000000000e+00
389 105       0.0000000000000000e+00
389 118       0.0000000000000000e+00
389 119       0.0000000000000000e+00
389 120       0.0000000000000000e+00
389 133       0.0000000000000000e+00
389 134       0.0000000000000000e+00
389 135       0.0000000000000000e+00
389 211       0.0000000000000000e+00
389 212       0.0000000000000000e+00
389 213       0.0000000000000000e+00
389 226       0.0000000000000000e+00
389 227       0.0000000000000000e+00
389 228       0.0000000000000000e+00
389 271       0.0000000000000000e+00
389 272       0.0000000000000000e+00
389 273       0.0000000000000000e+00
389 286       0.0000000000000000e+00
389 287       0.0000000000000000e+00
389 288       0.0000000000000000e+00
389 388       0.0000000000000000e+00
389 390       0.0000000000000000e+00
389 415       0.0000000000000000e+00
389 416       0.0000000000000000e+00
389 417       0.0000000000000000e+00
389 442       0.0000000000000000e+00
389 443       0.0000000000000000e+00
389 444       0.0000000000000000e+00
390 390       0.0000000000000000e+00
390 13       0.0000000000000000e+00
390 14       0.0000000000000000e+00
390 15       0.0000000000000000e+00
390 28       0.0000000000000000e+00
390 29       0.0000000000000000e+00
390 30       0.0000000000000000e+00
390 43       0.0000000000000000e+00
390 44       0.0000000000000000e+00
390 45       0.0000000000000000e+00
390 58       0.0000000000000000e+00
390 59       0.0000000000000000e+00
390 60       0.0000000000000000e+00
390 73       0.0000000000000000e+00
390 74       0.0000000000000000e+00
390 75       0.0000000000000000e+00
390 88       0.0000000000000000e+00
390 89       0.0000000000000000e+00
390 90       0.0000000000000000e+00
390 103       0.0000000000000000e+00
390 104       0.0000000000000000e+00
390 105       0.0000000000000000e+00
390 118       0.0000000000000000e+00
390 119       0.0000000000000000e+00
390 120       0.0000000000000000e+00
390 133       0.0000000000000000e+00
390 134       0.0000000000000000e+00
390 135       0.0000000000000000e+00
390 211       0.0000000000000000e+00
390 212       0.0000000000000000e+00
390 213       0.0000000000000000e+00
390 226       0.0000000000000000e+00
390 227       0.0000000000000000e+00
390 228       0.0000000000000000e+00
390 271       0.0000000000000000e+00
390 272       0.0000000000000000e+00
390 273       0.0000000000000000e+00
390 286       0.0000000000000000e+00
390 287       0.0000000000000000e+00
390 288       0.0000000000000000e+00
390 388       0.0000000000000000e+00
390 389       0.0000000000000000e+00
390 415       0.0000000000000000e+00
390 416       0.0000000000000000e+00
390 417       0.0000000000000000e+00
390 442       0.0000000000000000e+00
390 443       0.0000000000000000e+00
390 444       0.0000000000000000e+00
391 391       0.0000000000000000e+00
391 28       0.0000000000000000e+00
391 29       0.0000000000000000e+00
391 30       0.0000000000000000e+00
391 43       0.0000000000000000e+00
391 44       0.0000000000000000e+00
391 45       0.0000000000000000e+00
391 73       0.0000000000000000e+00
391 74       0.0000000000000000e+00
391 75       0.0000000000000000e+00
391 88       0.0000000000000000e+00
391 89       0.0000000000000000e+00
391 90       0.0000000000000000e+00
391 118       0.0000000000000000e+00
391 119       0.0000000000000000e+00
391 120       0.0000000000000000e+00
391 133       0.0000000000000000e+00
391 134       0.0000000000000000e+00
391 135       0.0000000000000000e+00
391 226       0.0000000000000000e+00
391 227       0.0000000000000000e+00
391 228       0.0000000000000000e+00
391 241       0.0000000000000000e+00
391 242       0.0000000000000000e+00
391 243       0.0000000000000000e+00
391 286       0.0000000000000000e+00
391 287       0.0000000000000000e+00
391 288       0.0000000000000000e+00
391 301       0.0000000000000000e+00
391 302       0.0000000000000000e+00
391 303       0.0000000000000000e+00
391 392       0.0000000000000000e+00
391 393       0.0000000000000000e+00
391 418       0.0000000000000000e+00
391 419       0.0000000000000000e+00
391 420       0.0000000000000000e+00
391 445       0.0000000000000000e+00
391 446       0.0000000000000000e+00
391 447       0.0000000000000000e+00
392 392       0.0000000000000000e+00
392 28       0.0000000000000000e+00
392 29       0.0000000000000000e+00
392 30       0.0000000000000000e+00
392 43       0.0000000000000000e+00
392 44       0.0000000000000000e+00
392 45       0.0000000000000000e+00
392 73       0.0000000000000000e+00
392 74       0.0000000000000000e+00
392 75       0.0000000000000000e+00
392 88       0.0000000000000000e+00
392 89       0.0000000000000000e+00
392 90       0.0000000000000000e+00
392 118       0.0000000000000000e+00
392 119       0.0000000000000000e+00
392 120       0.0000000000000000e+00
392 133       0.0000000000000000e+00
392 134       0.0000000000000000e+00
392 135       0.0000000000000000e+00
392 226       0.0000000000000000e+00
392 227       0.0000000000000000e+00
392 228       0.0000000000000000e+00
392 241       0.0000000000000000e+00
392 242       0.0000000000000000e+00
392 243       0.0000000000000000e+00
392 286       0.0000000000000000e+00
392 287       0.0000000000000000e+00
392 288       0.0000000000000000e+00
392 301       0.0000000000000000e+00
392 302       0.0000000000000000e+00
392 303       0.0000000000000000e+00
392 391       0.0000000000000000e+00
392 393       0.0000000000000000e+00
392 418       0.0000000000000000e+00
392 419       0.0000000000000000e+00
392 420       0.0000000000000000e+00
392 445       0.0000000000000000e+00
392 446       0.0000000000000000e+00
392 447       0.0000000000000000e+00
393 393       0.0000000000000000e+00
393 28       0.0000000000000000e+00
393 29       0.0000000000000000e+00
393 30       0.0000000000000000e+00
393 43       0.0000000000000000e+00
393 44       0.0000000000000000e+00
393 45       0.0000000000000000e+00
393 73       0.0000000000000000e+00
393 74       0.0000000000000000e+00
393 75       0.0000000000000000e+00
393 88       0.0000000000000000e+00
393 89       0.0000000000000000e+00
393 90       0.0000000000000000e+00
393 118       0.0000000000000000e+00
393 119       0.0000000000000000e+00
393 120       0.0000000000000000e+00
393 133       0.0000000000000000e+00
393 134       0.0000000000000000e+00
393 135       0.0000000000000000e+00
393 226       0.0000000000000000e+00
393 227       0.0000000000000000e+00
393 228       0.0000000000000000e+00
393 241       0.0000000000000000e+00
393 242       0.0000000000000000e+00
393 243       0.0000000000000000e+00
393 286       0.0000000000000000e+00
393 287       0.0000000000000000e+00
393 288       0.0000000000000000e+00
393 301       0.0000000000000000e+00
393 302       0.0000000000000000e+00
393 303       0.0000000000000000e+00
393 391       0.0000000000000000e+00
393 392       0.0000000000000000e+00
393 418       0.0000000000000000e+00
393 419       0.0000000000000000e+00
393 420       0.0000000000000000e+00
393 445       0.0000000000000000e+00
393 446       0.0000000000000000e+00
393 447       0.0000000000000000e+00
394 394       0.0000000000000000e+00
394 58       0.0000000000000000e+00
394 59       0.0000000000000000e+00
394 60       0.0000000000000000e+00
394 73       0.0000000000000000e+00
394 74       0.0000000000000000e+00
394 75       0.0000000000000000e+00
394 103       0.0000000000000000e+00
394 104       0.0000000000000000e+00
394 105       0.0000000000000000e+00
394 118       0.0000000000000000e+00
394 119       0.0000000000000000e+00
394 120       0.0000000000000000e+00
394 256       0.0000000000000000e+00
394 257       0.0000000000000000e+00
394 258       0.0000000000000000e+00
394 271       0.0000000000000000e+00
394 272       0.0000000000000000e+00
394 273       0.0000000000000000e+00
394 316       0.0000000000000000e+00
394 317       0.0000000000000000e+00
394 318       0.0000000000000000e+00
394 331       0.0000000000000000e+00
394 332       0.0000000000000000e+00
394 333       0.0000000000000000e+00
394 395       0.0000000000000000e+00
394 396       0.0000000000000000e+00
394 421       0.0000000000000000e+00
394 422       0.0000000000000000e+00
394 423       0.0000000000000000e+00
394 448       0.0000000000000000e+00
394 449       0.0000000000000000e+00
394 450       0.0000000000000000e+00
395 395       0.0000000000000000e+00
395 58       0.0000000000000000e+00
395 59       0.0000000000000000e+00
395 60       0.0000000000000000e+00
395 73       0.0000000000000000e+00
395 74       0.0000000000000000e+00
395 75       0.0000000000000000e+00
395 103       0.0000000000000000e+00
395 104       0.0000000000000000e+00
395 105       0.0000000000000000e+00
395 118       0.0000000000000000e+00
395 119       0.0000000000000000e+00
395 120       0.0000000000000000e+00
395 256       0.0000000000000000e+00
395 257       0.0000000000000000e+00
395 258       0.0000000000000000e+00
395 271       0.0000000000000000e+00
395 272       0.0000000000000000e+00
395 273       0.0000000000000000e+00
395 316       0.0000000000000000e+00
395 317       0.0000000000000000e+00
395 318       0.0000000000000000e+00
395 331       0.0000000000000000e+00
395 332       0.0000000000000000e+00
395 333       0.0000000000000000e+00
395 394       0.0000000000000000e+00
395 396       0.0000000000000000e+00
395 421       0.0000000000000000e+00
395 422       0.0000000000000000e+00
395 423       0.0000000000000000e+00
395 448       0.0000000000000000e+00
395 449       0.0000000000000000e+00
395 450       0.0000000000000000e+00
396 396       0.0000000000000000e+00
396 58       0.0000000000000000e+00
396 59       0.0000000000000000e+00
396 60       0.0000000000000000e+00
396 73       0.0000000000000000e+00
396 74       0.0000000000000000e+00
396 75       0.0000000000000000e+00
396 103       0.0000000000000000e+00
396 104       0.0000000000000000e+00
396 105       0.0000000000000000e+00
396 118       0.0000000000000000e+00
396 119       0.0000000000000000e+00
396 120       0.0000000000000000e+00
396 256       0.0000000000000000e+00
396 257       0.0000000000000000e+00
396 258       0.0000000000000000e+00
396 271       0.0000000000000000e+00
396 272       0.0000000000000000e+00
396 273       0.0000000000000000e+00
396 316       0.0000000000000000e+00
396 317       0.0000000000000000e+00
396 318       0.0000000000000000e+00
396 331       0.0000000000000000e+00
396 332       0.0000000000000000e+00
396 333       0.0000000000000000e+00
396 394       0.0000000000000000e+00
396 395       0.0000000000000000e+00
396 421       0.0000000000000000e+00
396 422       0.0000000000000000e+00
396 423       0.0000000000000000e+00
396 448       0.0000000000000000e+00
396 449       0.0000000000000000e+00
396 450       0.0000000000000000e+00
397 397       0.0000000000000000e+00
397 58       0.0000000000000000e+00
397 59       0.0000000000000000e+00
397 60       0.0000000000000000e+00
397 73       0.0000000000000000e+00
397 74       0.0000000000000000e+00
397 75       0.0000000000000000e+00
397 88       0.0000000000000000e+00
397 89       0.0000000000000000e+00
397 90       0.0000000000000000e+00
397 103       0.0000000000000000e+00
397 104       0.0000000000000000e+00
397 105       0.0000000000000000e+00
397 118       0.0000000000000000e+00
397 119       0.0000000000000000e+00
397 120       0.0000000000000000e+00
397 133       0.0000000000000000e+00
397 134       0.0000000000000000e+00
397 135       0.0000000000000000e+00
397 271       0.0000000000000000e+00
397 272       0.0000000000000000e+00
397 273       0.0000000000000000e+00
397 286       0.0000000000000000e+00
397 287       0.0000000000000000e+00
397 288       0.0000000000000000e+00
397 331       0.0000000000000000e+00
397 332       0.0000000000000000e+00
397 333       0.0000000000000000e+00
397 346       0.0000000000000000e+00
397 347       0.0000000000000000e+00
397 348       0.0000000000000000e+00
397 398       0.0000000000000000e+00
397 399       0.0000000000000000e+00
397 424       0.0000000000000000e+00
397 425       0.0000000000000000e+00
397 426       0.0000000000000000e+00
397 451       0.0000000000000000e+00
397 452       0.0000000000000000e+00
397 453       0.0000000000000000e+00
398 398       0.0000000000000000e+00
398 58       0.0000000000000000e+00
398 59       0.0000000000000000e+00
398 60       0.0000000000000000e+00
398 73       0.0000000000000000e+00
398 74       0.0000000000000000e+00
398 75       0.0000000000000000e+00
398 88       0.0000000000000000e+00
398 89       0.0000000000000000e+00
398 90       0.0000000000000000e+00
398 103       0.0000000000000000e+00
398 104       0.0000000000000000e+00
398 105       0.0000000000000000e+00
398 118       0.0000000000000000e+00
398 119       0.0000000000000000e+00
398 120       0.0000000000000000e+00
398 133       0.0000000000000000e+00
398 134       0.0000000000000000e+00
398 135       0.0000000000000000e+00
398 271       0.0000000000000000e+00
398 272       0.0000000000000000e+00
398 273       0.0000000000000000e+00
398 286       0.0000000000000000e+00
398 287       0.0000000000000000e+00
398 288       0.0000000000000000e+00
398 331       0.0000000000000000e+00
398 332       0.0000000000000000e+00
398 333       0.0000000000000000e+00
398 346       0.0000000000000000e+00
398 347       0.0000000000000000e+00
398 348       0.0000000000000000e+00
398 397       0.0000000000000000e+00
398 399       0.0000000000000000e+00
398 424       0.0000000000000000e+00
398 425       0.0000000000000000e+00
398 426       0.0000000000000000e+00
398 451       0.0000000000000000e+00
398 452       0.0000000000000000e+00
398 453       0.0000000000000000e+00
399 399       0.0000000000000000e+00
399 58       0.0000000000000000e+00
399 59       0.0000000000000000e+00
399 60       0.0000000000000000e+00
399 73       0.0000000000000000e+00
399 74       0.0000000000000000e+00
399 75       0.0000000000000000e+00
399 88       0.0000000000000000e+00
399 89       0.0000000000000000e+00
399 90       0.0000000000000000e+00
399 103       0.0000000000000000e+00
399 104       0.0000000000000000e+00
399 105       0.0000000000000000e+00
399 118       0.0000000000000000e+00
399 119       0.0000000000000000e+00
399 120       0.0000000000000000e+00
399 133       0.0000000000000000e+00
399 134       0.0000000000000000e+00
399 135       0.0000000000000000e+00
399 271       0.0000000000000000e+00
399 272       0.0000000000000000e+00
399 273       0.0000000000000000e+00
399 286       0.0000000000000000e+00
399 287       0.0000000000000000e+00
399 288       0.0000000000000000e+00
399 331       0.0000000000000000e+00
399 332       0.0000000000000000e+00
399 333       0.0000000000000000e+00
399 346       0.0000000000000000e+00
399 347       0.0000000000000000e+00
399 348       0.0000000000000000e+00
399 397       0.0000000000000000e+00
399 398       0.0000000000000000e+00
399 424       0.0000000000000000e+00
399 425       0.0000000000000000e+00
399 426       0.0000000000000000e+00
399 451       0.0000000000000000e+00
399 452       0.0000000000000000e+00
399 453       0.0000000000000000e+00
400 400       0.0000000000000000e+00
400 73       0.0000000000000000e+00
400 74       0.0000000000000000e+00
400 75       0.0000000000000000e+00
400 88       0.0000000000000000e+00
400 89       0.0000000000000000e+00
400 90       0.0000000000000000e+00
400 118       0.0000000000000000e+00
400 119       0.0000000000000000e+00
400 120       0.0000000000000000e+00
400 133       0.0000000000000000e+00
400 134       0.0000000000000000e+00
400 135       0.0000000000000000e+00
400 286       0.0000000000000000e+00
400 287       0.0000000000000000e+00
400 288       0.0000000000000000e+00
400 301       0.0000000000000000e+00
400 302       0.0000000000000000e+00
400 303       0.0000000000000000e+00
400 346       0.0000000000000000e+00
400 347       0.0000000000000000e+00
400 348       0.0000000000000000e+00
400 361       0.0000000000000000e+00
400 362       0.0000000000000000e+00
400 363       0.0000000000000000e+00
400 401       0.0000000000000000e+00
400 402       0.0000000000000000e+00
400 427       0.0000000000000000e+00
400 428       0.0000000000000000e+00
400 429       0.0000000000000000e+00
400 454       0.0000000000000000e+00
400 455       0.0000000000000000e+00
400 456       0.0000000000000000e+00
401 401       0.0000000000000000e+00
401 73       0.0000000000000000e+00
401 74       0.0000000000000000e+00
401 75       0.0000000000000000e+00
401 88       0.0000000000000000e+00
401 89       0.0000000000000000e+00
401 90       0.0000000000000000e+00
401 118       0.0000000000000000e+00
401 119       0.0000000000000000e+00
401 120       0.0000000000000000e+00
401 133       0.0000000000000000e+00
401 134       0.0000000000000000e+00
401 135       0.0000000000000000e+00
401 286       0.0000000000000000e+00
401 287       0.0000000000000000e+00
401 288       0.0000000000000000e+00
401 301       0.0000000000000000e+00
401 302       0.0000000000000000e+00
401 303       0.0000000000000000e+00
401 346       0.0000000000000000e+00
401 347       0.0000000000000000e+00
401 348       0.0000000000000000e+00
401 361       0.0000000000000000e+00
401 362       0.0000000000000000e+00
401 363       0.0000000000000000e+00
401 400       0.0000000000000000e+00
401 402       0.0000000000000000e+00
401 427       0.0000000000000000e+00
401 428       0.0000000000000000e+00
401 429       0.0000000000000000e+00
401 454       0.0000000000000000e+00
401 455       0.0000000000000000e+00
401 456       0.0000000000000000e+00
402 402       0.0000000000000000e+00
402 73       0.0000000000000000e+00
402 74       0.0000000000000000e+00
402 75       0.0000000000000000e+00
402 88       0.0000000000000000e+00
402 89       0.0000000000000000e+00
402 90       0.0000000000000000e+00
402 118       0.0000000000000000e+00
402 119       0.0000000000000000e+00
402 120       0.0000000000000000e+00
402 133       0.0000000000000000e+00
402 134       0.0000000000000000e+00
402 135       0.0000000000000000e+00
402 286       0.0000000000000000e+00
402 287       0.0000000000000000e+00
402 288       0.0000000000000000e+00
402 301       0.0000000000000000e+00
402 302       0.0000000000000000e+00
402 303       0.0000000000000000e+00
402 346       0.0000000000000000e+00
402 347       0.0000000000000000e+00
402 348       0.0000000000000000e+00
402 361       0.0000000000000000e+00
402 362       0.0000000000000000e+00
402 363       0.0000000000000000e+00
402 400       0.0000000000000000e+00
402 401       0.0000000000000000e+00
402 427       0.0000000000000000e+00
402 428       0.0000000000000000e+00
402 429       0.0000000000000000e+00
402 454       0.0000000000000000e+00
402 455       0.0000000000000000e+00
402 456       0.0000000000000000e+00
403 403       0.0000000000000000e+00
403 136       0.0000000000000000e+00
403 137       0.0000000000000000e+00
403 138       0.0000000000000000e+00
403 139       0.0000000000000000e+00
403 140       0.0000000000000000e+00
403 141       0.0000000000000000e+00
403 151       0.0000000000000000e+00
403 152       0.0000000000000000e+00
403 153       0.0000000000000000e+00
403 154       0.0000000000000000e+00
403 155       0.0000000000000000e+00
403 156       0.0000000000000000e+00
403 196       0.0000000000000000e+00
403 197       0.0000000000000000e+00
403 198       0.0000000000000000e+00
403 199       0.0000000000000000e+00
403 200       0.0000000000000000e+00
403 201       0.0000000000000000e+00
403 211       0.0000000000000000e+00
403 212       0.0000000000000000e+00
403 213       0.0000000000000000e+00
403 214       0.0000000000000000e+00
403 215       0.0000000000000000e+00
403 216       0.0000000000000000e+00
403 376       0.0000000000000000e+00
403 377       0.0000000000000000e+00
403 378       0.0000000000000000e+00
403 404       0.0000000000000000e+00
403 405       0.0000000000000000e+00
403 430       0.0000000000000000e+00
403 431       0.0000000000000000e+00
403 432       0.0000000000000000e+00
404 404       0.0000000000000000e+00
404 136       0.0000000000000000e+00
404 137       0.0000000000000000e+00
404 138       0.0000000000000000e+00
404 139       0.0000000000000000e+00
404 140       0.0000000000000000e+00
404 141       0.0000000000000000e+00
404 151       0.0000000000000000e+00
404 152       0.0000000000000000e+00
404 153       0.0000000000000000e+00
404 154       0.0000000000000000e+00
404 155       0.0000000000000000e+00
404 156       0.0000000000000000e+00
404 196       0.0000000000000000e+00
404 197       0.0000000000000000e+00
404 198       0.0000000000000000e+00
404 199       0.0000000000000000e+00
404 200       0.0000000000000000e+00
404 201       0.0000000000000000e+00
404 211       0.0000000000000000e+00
404 212       0.0000000000000000e+00
404 213       0.0000000000000000e+00
404 214       0.0000000000000000e+00
404 215       0.0000000000000000e+00
404 216       0.0000000000000000e+00
404 376       0.0000000000000000e+00
404 377       0.0000000000000000e+00
404 378       0.0000000000000000e+00
404 403       0.0000000000000000e+00
404 405       0.0000000000000000e+00
404 430       0.0000000000000000e+00
404 431       0.0000000000000000e+00
404 432       0.0000000000000000e+00
405 405       0.0000000000000000e+00
405 136       0.0000000000000000e+00
405 137       0.0000000000000000e+00
405 138       0.0000000000000000e+00
405 139       0.0000000000000000e+00
405 140       0.0000000000000000e+00
405 141       0.0000000000000000e+00
405 151       0.0000000000000000e+00
405 152       0.0000000000000000e+00
405 153       0.0000000000000000e+00
405 154       0.0000000000000000e+00
405 155       0.0000000000000000e+00
405 156       0.0000000000000000e+00
405 196       0.0000000000000000e+00
405 197       0.0000000000000000e+00
405 198       0.0000000000000000e+00
405 199       0.0000000000000000e+00
405 200       0.0000000000000000e+00
405 201       0.0000000000000000e+00
405 211       0.0000000000000000e+00
405 212       0.0000000000000000e+00
405 213       0.0000000000000000e+00
405 214       0.0000000000000000e+00
405 215       0.0000000000000000e+00
405 216       0.0000000000000000e+00
405 376       0.0000000000000000e+00
405 377       0.0000000000000000e+00
405 378       0.0000000000000000e+00
405 403       0.0000000000000000e+00
405 404       0.0000000000000000e+00
405 430       0.0000000000000000e+00
405 431       0.0000000000000000e+00
405 432       0.0000000000000000e+00
406 406       0.0000000000000000e+00
406 151       0.0000000000000000e+00
406 152       0.0000000000000000e+00
406 153       0.0000000000000000e+00
406 154       0.0000000000000000e+00
406 155       0.0000000000000000e+00
406 156       0.0000000000000000e+00
406 166       0.0000000000000000e+00
406 167       0.0000000000000000e+00
406 168       0.0000000000000000e+00
406 169       0.0000000000000000e+00
406 170       0.0000000000000000e+00
406 171       0.0000000000000000e+00
406 211       0.0000000000000000e+00
406 212       0.0000000000000000e+00
406 213       0.0000000000000000e+00
406 214       0.0000000000000000e+00
406 215       0.0000000000000000e+00
406 216       0.0000000000000000e+00
406 226       0.0000000000000000e+00
406 227       0.0000000000000000e+00
406 228       0.0000000000000000e+00
406 229       0.0000000000000000e+00
406 230       0.0000000000000000e+00
406 231       0.0000000000000000e+00
406 379       0.0000000000000000e+00
406 380       0.0000000000000000e+00
406 381       0.0000000000000000e+00
406 407       0.0000000000000000e+00
406 408       0.0000000000000000e+00
406 433       0.0000000000000000e+00
406 434       0.0000000000000000e+00
406 435       0.0000000000000000e+00
407 407       0.0000000000000000e+00
407 151       0.0000000000000000e+00
407 152       0.0000000000000000e+00
407 153       0.0000000000000000e+00
407 154       0.0000000000000000e+00
407 155       0.0000000000000000e+00
407 156       0.0000000000000000e+00
407 166       0.0000000000000000e+00
407 167       0.0000000000000000e+00
407 168       0.0000000000000000e+00
407 169       0.0000000000000000e+00
407 170       0.0000000000000000e+00
407 171       0.0000000000000000e+00
407 211       0.0000000000000000e+00
407 212       0.0000000000000000e+00
407 213       0.0000000000000000e+00
407 214       0.0000000000000000e+00
407 215       0.0000000000000000e+00
407 216       0.0000000000000000e+00
407 226       0.0000000000000000e+00
407 227       0.0000000000000000e+00
407 228       0.0000000000000000e+00
407 229       0.0000000000000000e+00
407 230       0.0000000000000000e+00
407 231       0.0000000000000000e+00
407 379       0.0000000000000000e+00
407 380       0.0000000000000000e+00
407 381       0.0000000000000000e+00
407 406       0.0000000000000000e+00
407 408       0.0000000000000000e+00
407 433       0.0000000000000000e+00
407 434       0.0000000000000000e+00
407 435       0.0000000000000000e+00
408 408       0.0000000000000000e+00
408 151       0.0000000000000000e+00
408 152       0.0000000000000000e+00
408 153       0.0000000000000000e+00
408 154       0.0000000000000000e+00
408 155       0.0000000000000000e+00
408 156       0.0000000000000000e+00
408 166       0.0000000000000000e+00
408 167       0.0000000000000000e+00
408 168       0.0000000000000000e+00
408 169       0.0000000000000000e+00
408 170       0.0000000000000000e+00
408 171       0.0000000000000000e+00
408 211       0.0000000000000000e+00
408 212       0.0000000000000000e+00
408 213       0.0000000000000000e+00
408 214       0.0000000000000000e+00
408 215       0.0000000000000000e+00
408 216       0.0000000000000000e+00
408 226       0.0000000000000000e+00
408 227       0.0000000000000000e+00
408 228       0.0000000000000000e+00
408 229       0.0000000000000000e+00
408 230       0.0000000000000000e+00
408 231       0.0000000000000000e+00
408 379       0.0000000000000000e+00
408 380       0.0000000000000000e+00
408 381       0.0000000000000000e+00
408 406       0.0000000000000000e+00
408 407       0.0000000000000000e+00
408 433       0.0000000000000000e+00
408 434       0.0000000000000000e+00
408 435       0.0000000000000000e+00
409 409       0.0000000000000000e+00
409 166       0.0000000000000000e+00
409 167       0.0000000000000000e+00
409 168       0.0000000000000000e+00
409 169       0.0000000000000000e+00
409 170       0.0000000000000000e+00
409 171       0.0000000000000000e+00
409 181       0.0000000000000000e+00
409 182       0.0000000000000000e+00
409 183       0.0000000000000000e+00
409 184       0.0000000000000000e+00
409 185       0.0000000000000000e+00
409 186       0.0000000000000000e+00
409 226       0.0000000000000000e+00
409 227       0.0000000000000000e+00
409 228       0.0000000000000000e+00
409 229       0.0000000000000000e+00
409 230       0.0000000000000000e+00
409 231       0.0000000000000000e+00
409 241       0.0000000000000000e+00
409 242       0.0000000000000000e+00
409 243       0.0000000000000000e+00
409 244       0.0000000000000000e+00
409 245       0.0000000000000000e+00
409 246       0.0000000000000000e+00
409 382       0.0000000000000000e+00
409 383       0.0000000000000000e+00
409 384       0.0000000000000000e+00
409 410       0.0000000000000000e+00
409 411       0.0000000000000000e+00
409 436       0.0000000000000000e+00
409 437       0.0000000000000000e+00
409 438       0.0000000000000000e+00
410 410       0.0000000000000000e+00
410 166       0.0000000000000000e+00
410 167       0.0000000000000000e+00
410 168       0.0000000000000000e+00
410 169       0.0000000000000000e+00
410 170       0.0000000000000000e+00
410 171       0.0000000000000000e+00
410 181       0.0000000000000000e+00
410 182       0.0000000000000000e+00
410 183       0.0000000000000000e+00
410 184       0.0000000000000000e+00
410 185       0.0000000000000000e+00
410 186       0.0000000000000000e+00
410 226       0.0000000000000000e+00
410 227       0.0000000000000000e+00
410 228       0.0000000000000000e+00
410 229       0.0000000000000000e+00
410 230       0.0000000000000000e+00
410 231       0.0000000000000000e+00
410 241       0.0000000000000000e+00
410 242       0.0000000000000000e+00
410 243       0.0000000000000000e+00
410 244       0.0000000000000000e+00
410 245       0.0000000000000000e+00
410 246       0.0000000000000000e+00
410 382       0.0000000000000000e+00
410 383       0.0000000000000000e+00
410 384       0.0000000000000000e+00
410 409       0.0000000000000000e+00
410 411       0.0000000000000000e+00
410 436       0.0000000000000000e+00
410 437       0.0000000000000000e+00
410 438       0.0000000000000000e+00
411 411       0.0000000000000000e+00
411 166       0.0000000000000000e+00
411 167       0.0000000000000000e+00
411 168       0.0000000000000000e+00
411 169       0.0000000000000000e+00
411 170       0.0000000000000000e+00
411 171       0.0000000000000000e+00
411 181       0.0000000000000000e+00
411 182       0.0000000000000000e+00
411 183       0.0000000000000000e+00
411 184       0.0000000000000000e+00
411 185       0.0000000000000000e+00
411 186       0.0000000000000000e+00
411 226       0.0000000000000000e+00
411 227       0.0000000000000000e+00
411 228       0.0000000000000000e+00
411 229       0.0000000000000000e+00
411 230       0.0000000000000000e+00
411 231       0.0000000000000000e+00
411 241       0.0000000000000000e+00
411 242       0.0000000000000000e+00
411 243       0.0000000000000000e+00
411 244       0.0000000000000000e+00
411 245       0.0000000000000000e+00
411 246       0.0000000000000000e+00
411 382       0.0000000000000000e+00
411 383       0.0000000000000000e+00
411 384       0.0000000000000000e+00
411 409       0.0000000000000000e+00
411 410       0.0000000000000000e+00
411 436       0.0000000000000000e+00
411 437       0.0000000000000000e+00
411 438       0.0000000000000000e+00
412 412       0.0000000000000000e+00
412 196       0.0000000000000000e+00
412 197       0.0000000000000000e+00
412 198       0.0000000000000000e+00
412 199       0.0000000000000000e+00
412 200       0.0000000000000000e+00
412 201       0.0000000000000000e+00
412 211       0.0000000000000000e+00
412 212       0.0000000000000000e+00
412 213       0.0000000000000000e+00
412 214       0.0000000000000000e+00
412 215       0.0000000000000000e+00
412 216       0.0000000000000000e+00
412 256       0.0000000000000000e+00
412 257       0.0000000000000000e+00
412 258       0.0000000000000000e+00
412 259       0.0000000000000000e+00
412 260       0.0000000000000000e+00
412 261       0.0000000000000000e+00
412 271       0.0000000000000000e+00
412 272       0.0000000000000000e+00
412 273       0.0000000000000000e+00
412 274       0.0000000000000000e+00
412 275       0.0000000000000000e+00
412 276       0.0000000000000000e+00
412 385       0.0000000000000000e+00
412 386       0.0000000000000000e+00
412 387       0.0000000000000000e+00
412 413       0.0000000000000000e+00
412 414       0.0000000000000000e+00
412 439       0.0000000000000000e+00
412 440       0.0000000000000000e+00
412 441       0.0000000000000000e+00
413 413       0.0000000000000000e+00
413 196       0.0000000000000000e+00
413 197       0.0000000000000000e+00
413 198       0.0000000000000000e+00
413 199       0.0000000000000000e+00
413 200       0.0000000000000000e+00
413 201       0.0000000000000000e+00
413 211       0.0000000000000000e+00
413 212       0.0000000000000000e+00
413 213       0.0000000000000000e+00
413 214       0.0000000000000000e+00
413 215       0.0000000000000000e+00
413 216       0.0000000000000000e+00
413 256       0.0000000000000000e+00
413 257       0.0000000000000000e+00
413 258       0.0000000000000000e+00
413 259       0.0000000000000000e+00
413 260       0.0000000000000000e+00
413 261       0.0000000000000000e+00
413 271       0.0000000000000000e+00
413 272       0.0000000000000000e+00
413 273       0.0000000000000000e+00
413 274       0.0000000000000000e+00
413 275       0.0000000000000000e+00
413 276       0.0000000000000000e+00
413 385       0.0000000000000000e+00
413 386       0.0000000000000000e+00
413 387       0.0000000000000000e+00
413 412       0.0000000000000000e+00
413 414       0.0000000000000000e+00
413 439       0.0000000000000000e+00
413 440       0.0000000000000000e+00
413 441       0.0000000000000000e+00
414 414       0.0000000000000000e+00
414 196       0.0000000000000000e+00
414 197       0.0000000000000000e+00
414 198       0.0000000000000000e+00
414 199       0.0000000000000000e+00
414 200       0.0000000000000000e+00
414 201       0.0000000000000000e+00
414 211       0.0000000000000000e+00
414 212       0.0000000000000000e+00
414 213       0.0000000000000000e+00
414 214       0.0000000000000000e+00
414 215       0.0000000000000000e+00
414 216       0.0000000000000000e+00
414 256       0.0000000000000000e+00
414 257       0.0000000000000000e+00
414 258       0.0000000000000000e+00
414 259       0.0000000000000000e+00
414 260       0.0000000000000000e+00
414 261       0.0000000000000000e+00
414 271       0.0000000000000000e+00
414 272       0.0000000000000000e+00
414 273       0.0000000000000000e+00
414 274       0.0000000000000000e+00
414 275       0.0000000000000000e+00
414 276       0.0000000000000000e+00
414 385       0.0000000000000000e+00
414 386       0.0000000000000000e+00
414 387       0.0000000000000000e+00
414 412       0.0000000000000000e+00
414 413       0.0000000000000000e+00
414 439       0.0000000000000000e+00
414 440       0.0000000000000000e+00
414 441       0.0000000000000000e+00
415 415       0.0000000000000000e+00
415 211       0.0000000000000000e+00
415 212       0.0000000000000000e+00
415 213       0.0000000000000000e+00
415 214       0.0000000000000000e+00
415 215       0.0000000000000000e+00
415 216       0.0000000000000000e+00
415 226       0.0000000000000000e+00
415 227       0.0000000000000000e+00
415 228       0.0000000000000000e+00
415 229       0.0000000000000000e+00
415 230       0.0000000000000000e+00
415 231       0.0000000000000000e+00
415 271       0.0000000000000000e+00
415 272       0.0000000000000000e+00
415 273       0.0000000000000000e+00
415 274       0.0000000000000000e+00
415 275       0.0000000000000000e+00
415 276       0.0000000000000000e+00
415 286       0.0000000000000000e+00
415 287       0.0000000000000000e+00
415 288       0.0000000000000000e+00
415 289       0.0000000000000000e+00
415 290       0.0000000000000000e+00
415 291       0.0000000000000000e+00
415 388       0.0000000000000000e+00
415 389       0.0000000000000000e+00
415 390       0.0000000000000000e+00
415 416       0.0000000000000000e+00
415 417       0.0000000000000000e+00
415 442       0.0000000000000000e+00
415 443       0.0000000000000000e+00
415 444       0.0000000000000000e+00
416 416       0.0000000000000000e+00
416 211       0.0000000000000000e+00
416 212       0.0000000000000000e+00
416 213       0.0000000000000000e+00
416 214       0.0000000000000000e+00
416 215       0.0000000000000000e+00
416 216       0.0000000000000000e+00
416 226       0.0000000000000000e+00
416 227       0.0000000000000000e+00
416 228       0.0000000000000000e+00
416 229       0.0000000000000000e+00
416 230       0.0000000000000000e+00
416 231       0.0000000000000000e+00
416 271       0.0000000000000000e+00
416 272       0.0000000000000000e+00
416 273       0.0000000000000000e+00
416 274       0.0000000000000000e+00
416 275       0.0000000000000000e+00
416 276       0.0000000000000000e+00
416 286       0.0000000000000000e+00
416 287       0.0000000000000000e+00
416 288       0.0000000000000000e+00
416 289       0.0000000000000000e+00
416 290       0.0000000000000000e+00
416 291       0.0000000000000000e+00
416 388       0.0000000000000000e+00
416 389       0.0000000000000000e+00
416 390       0.0000000000000000e+00
416 415       0.0000000000000000e+00
416 417       0.0000000000000000e+00
416 442       0.0000000000000000e+00
416 443       0.0000000000000000e+00
416 444       0.0000000000000000e+00
417 417       0.0000000000000000e+00
417 211       0.0000000000000000e+00
417 212       0.0000000000000000e+00
417 213       0.0000000000000000e+00
417 214       0.0000000000000000e+00
417 215       0.0000000000000000e+00
417 216       0.0000000000000000e+00
417 226       0.0000000000000000e+00
417 227       0.0000000000000000e+00
417 228       0.0000000000000000e+00
417 229       0.0000000000000000e+00
417 230       0.0000000000000000e+00
417 231       0.0000000000000000e+00
417 271       0.0000000000000000e+00
417 272       0.0000000000000000e+00
417 273       0.0000000000000000e+00
417 274       0.0000000000000000e+00
417 275       0.0000000000000000e+00
417 276       0.0000000000000000e+00
417 286       0.0000000000000000e+00
417 287       0.0000000000000000e+00
417 288       0.0000000000000000e+00
417 289       0.0000000000000000e+00
417 290       0.0000000000000000e+00
417 291       0.0000000000000000e+00
417 388       0.0000000000000000e+00
417 389       0.0000000000000000e+00
417 390       0.0000000000000000e+00
417 415       0.0000000000000000e+00
417 416       0.0000000000000000e+00
417 442       0.0000000000000000e+00
417 443       0.0000000000000000e+00
417 444       0.0000000000000000e+00
418 418       0.0000000000000000e+00
418 226       0.0000000000000000e+00
418 227       0.0000000000000000e+00
418 228       0.0000000000000000e+00
418 229       0.0000000000000000e+00
418 230       0.0000000000000000e+00
418 231       0.0000000000000000e+00
418 241       0.0000000000000000e+00
418 242       0.0000000000000000e+00
418 243       0.0000000000000000e+00
418 244       0.0000000000000000e+00
418 245       0.0000000000000000e+00
418 246       0.0000000000000000e+00
418 286       0.0000000000000000e+00
418 287       0.0000000000000000e+00
418 288       0.0000000000000000e+00
418 289       0.0000000000000000e+00
418 290       0.0000000000000000e+00
418 291       0.0000000000000000e+00
418 301       0.0000000000000000e+00
418 302       0.0000000000000000e+00
418 303       0.0000000000000000e+00
418 304       0.0000000000000000e+00
418 305       0.0000000000000000e+00
418 306       0.0000000000000000e+00
418 391       0.0000000000000000e+00
418 392       0.0000000000000000e+00
418 393       0.0000000000000000e+00
418 419       0.0000000000000000e+00
418 420       0.0000000000000000e+00
418 445       0.0000000000000000e+00
418 446       0.0000000000000000e+00
418 447       0.0000000000000000e+00
419 419       0.0000000000000000e+00
419 226       0.0000000000000000e+00
419 227       0.0000000000000000e+00
419 228       0.0000000000000000e+00
419 229       0.0000000000000000e+00
419 230       0.0000000000000000e+00
419 231       0.0000000000000000e+00
419 241       0.0000000000000000e+00
419 242       0.0000000000000000e+00
419 243       0.0000000000000000e+00
419 244       0.0000000000000000e+00
419 245       0.0000000000000000e+00
419 246       0.0000000000000000e+00
419 286       0.0000000000000000e+00
419 287       0.0000000000000000e+00
419 288       0.0000000000000000e+00
419 289       0.0000000000000000e+00
419 290       0.0000000000000000e+00
419 291       0.0000000000000000e+00
419 301       0.0000000000000000e+00
419 302       0.0000000000000000e+00
419 303       0.0000000000000000e+00
419 304       0.0000000000000000e+00
419 305       0.0000000000000000e+00
419 306       0.0000000000000000e+00
419 391       0.0000000000000000e+00
419 392       0.0000000000000000e+00
419 393       0.0000000000000000e+00
419 418       0.0000000000000000e+00
419 420       0.0000000000000000e+00
419 445       0.0000000000000000e+00
419 446       0.0000000000000000e+00
419 447       0.0000000000000000e+00
420 420       0.0000000000000000e+00
420 226       0.0000000000000000e+00
420 227       0.0000000000000000e+00
420 228       0.0000000000000000e+00
420 229       0.0000000000000000e+00
420 230       0.0000000000000000e+00
420 231       0.0000000000000000e+00
420 241       0.0000000000000000e+00
420 242       0.0000000000000000e+00
420 243       0.0000000000000000e+00
420 244       0.0000000000000000e+00
420 245       0.0000000000000000e+00
420 246       0.0000000000000000e+00
420 286       0.0000000000000000e+00
420 287       0.0000000000000000e+00
420 288       0.0000000000000000e+00
420 289       0.0000000000000000e+00
420 290       0.0000000000000000e+00
420 291       0.0000000000000000e+00
420 301       0.0000000000000000e+00
420 302       0.0000000000000000e+00
420 303       0.0000000000000000e+00
420 304       0.0000000000000000e+00
420 305       0.0000000000000000e+00
420 306       0.0000000000000000e+00
420 391       0.0000000000000000e+00
420 392       0.0000000000000000e+00
420 393       0.0000000000000000e+00
420 418       0.0000000000000000e+00
420 419       0.0000000000000000e+00
420 445       0.0000000000000000e+00
420 446       0.0000000000000000e+00
420 447       0.0000000000000000e+00
421 421       0.0000000000000000e+00
421 256       0.0000000000000000e+00
421 257       0.0000000000000000e+00
421 258       0.0000000000000000e+00
421 259       0.0000000000000000e+00
421 260       0.0000000000000000e+00
421 261       0.0000000000000000e+00
421 271       0.0000000000000000e+00
421 272       0.0000000000000000e+00
421 273       0.0000000000000000e+00
421 274       0.0000000000000000e+00
421 275       0.0000000000000000e+00
421 276       0.0000000000000000e+00
421 316       0.0000000000000000e+00
421 317       0.0000000000000000e+00
421 318       0.0000000000000000e+00
421 319       0.0000000000000000e+00
421 320       0.0000000000000000e+00
421 321       0.0000000000000000e+00
421 331       0.0000000000000000e+00
421 332       0.0000000000000000e+00
421 333       0.0000000000000000e+00
421 334       0.0000000000000000e+00
421 335       0.0000000000000000e+00
421 336       0.0000000000000000e+00
421 394       0.0000000000000000e+00
421 395       0.0000000000000000e+00
421 396       0.0000000000000000e+00
421 422       0.0000000000000000e+00
421 423       0.0000000000000000e+00
421 448       0.0000000000000000e+00
421 449       0.0000000000000000e+00
421 450       0.0000000000000000e+00
422 422       0.0000000000000000e+00
422 256       0.0000000000000000e+00
422 257       0.0000000000000000e+00
422 258       0.0000000000000000e+00
422 259       0.0000000000000000e+00
422 260       0.0000000000000000e+00
422 261       0.0000000000000000e+00
422 271       0.0000000000000000e+00
422 272       0.0000000000000000e+00
422 273       0.0000000000000000e+00
422 274       0.0000000000000000e+00
422 275       0.0000000000000000e+00
422 276       0.0000000000000000e+00
422 316       0.0000000000000000e+00
422 317       0.0000000000000000e+00
422 318       0.0000000000000000e+00
422 319       0.0000000000000000e+00
422 320       0.0000000000000000e+00
422 321       0.0000000000000000e+00
422 331       0.0000000000000000e+00
422 332       0.0000000000000000e+00
422 333       0.0000000000000000e+00
422 334       0.0000000000000000e+00
422 335       0.0000000000000000e+00
422 336       0.0000000000000000e+00
422 394       0.0000000000000000e+00
422 395       0.0000000000000000e+00
422 396       0.0000000000000000e+00
422 421       0.0000000000000000e+00
422 423       0.0000000000000000e+00
422 448       0.0000000000000000e+00
422 449       0.0000000000000000e+00
422 450       0.0000000000000000e+00
423 423       0.0000000000000000e+00
423 256       0.0000000000000000e+00
423 257       0.0000000000000000e+00
423 258       0.0000000000000000e+00
423 259       0.0000000000000000e+00
423 260       0.0000000000000000e+00
423 261       0.0000000000000000e+00
423 271       0.0000000000000000e+00
423 272       0.0000000000000000e+00
423 273       0.0000000000000000e+00
423 274       0.0000000000000000e+00
423 275       0.0000000000000000e+00
423 276       0.0000000000000000e+00
423 316       0.0000000000000000e+00
423 317       0.0000000000000000e+00
423 318       0.0000000000000000e+00
423 319       0.0000000000000000e+00
423 320       0.0000000000000000e+00
423 321       0.0000000000000000e+00
423 331       0.0000000000000000e+00
423 332       0.0000000000000000e+00
423 333       0.0000000000000000e+00
423 334       0.0000000000000000e+00
423 335       0.0000000000000000e+00
423 336       0.0000000000000000e+00
423 394       0.0000000000000000e+00
423 395       0.0000000000000000e+00
423 396       0.0000000000000000e+00
423 421       0.0000000000000000e+00
423 422       0.0000000000000000e+00
423 448       0.0000000000000000e+00
423 449       0.0000000000000000e+00
423 450       0.0000000000000000e+00
424 424       0.0000000000000000e+00
424 271       0.0000000000000000e+00
424 272       0.0000000000000000e+00
424 273       0.0000000000000000e+00
424 274       0.0000000000000000e+00
424 275       0.0000000000000000e+00
424 276       0.0000000000000000e+00
424 286       0.0000000000000000e+00
424 287       0.0000000000000000e+00
424 288       0.0000000000000000e+00
424 289       0.0000000000000000e+00
424 290       0.0000000000000000e+00
424 291       0.0000000000000000e+00
424 331       0.0000000000000000e+00
424 332       0.0000000000000000e+00
424 333       0.0000000000000000e+00
424 334       0.0000000000000000e+00
424 335       0.0000000000000000e+00
424 336       0.0000000000000000e+00
424 346       0.0000000000000000e+00
424 347       0.0000000000000000e+00
424 348       0.0000000000000000e+00
424 349       0.0000000000000000e+00
424 350       0.0000000000000000e+00
424 351       0.0000000000000000e+00
424 397       0.0000000000000000e+00
424 398       0.0000000000000000e+00
424 399       0.0000000000000000e+00
424 425       0.0000000000000000e+00
424 426       0.0000000000000000e+00
424 451       0.0000000000000000e+00
424 452       0.0000000000000000e+00
424 453       0.0000000000000000e+00
425 425       0.0000000000000000e+00
425 271       0.0000000000000000e+00
425 272       0.0000000000000000e+00
425 273       0.0000000000000000e+00
425 274       0.0000000000000000e+00
425 275       0.0000000000000000e+00
425 276       0.0000000000000000e+00
425 286       0.0000000000000000e+00
425 287       0.0000000000000000e+00
425 288       0.0000000000000000e+00
425 289       0.0000000000000000e+00
425 290       0.0000000000000000e+00
425 291       0.0000000000000000e+00
425 331       0.0000000000000000e+00
425 332       0.0000000000000000e+00
425 333       0.0000000000000000e+00
425 334       0.0000000000000000e+00
425 335       0.0000000000000000e+00
425 336       0.0000000000000000e+00
425 346       0.0000000000000000e+00
425 347       0.0000000000000000e+00
425 348       0.0000000000000000e+00
425 349       0.0000000000000000e+00
425 350       0.0000000000000000e+00
425 351       0.0000000000000000e+00
425 397       0.0000000000000000e+00
425 398       0.0000000000000000e+00
425 399       0.0000000000000000e+00
425 424       0.0000000000000000e+00
425 426       0.0000000000000000e+00
425 451       0.0000000000000000e+00
425 452       0.0000000000000000e+00
425 453       0.0000000000000000e+00
426 426       0.0000000000000000e+00
426 271       0.0000000000000000e+00
426 272       0.0000000000000000e+00
426 273       0.0000000000000000e+00
426 274       0.0000000000000000e+00
426 275       0.0000000000000000e+00
426 276       0.0000000000000000e+00
426 286       0.0000000000000000e+00
426 287       0.0000000000000000e+00
426 288       0.0000000000000000e+00
426 289       0.0000000000000000e+00
426 290       0.0000000000000000e+00
426 291       0.0000000000000000e+00
426 331       0.0000000000000000e+00
426 332       0.0000000000000000e+00
426 333       0.0000000000000000e+00
426 334       0.0000000000000000e+00
426 335       0.0000000000000000e+00
426 336       0.0000000000000000e+00
426 346       0.0000000000000000e+00
426 347       0.0000000000000000e+00
426 348       0.0000000000000000e+00
426 349       0.0000000000000000e+00
426 350       0.0000000000000000e+00
426 351       0.0000000000000000e+00
426 397       0.0000000000000000e+00
426 398       0.0000000000000000e+00
426 399       0.0000000000000000e+00
426 424       0.0000000000000000e+00
426 425       0.0000000000000000e+00
426 451       0.0000000000000000e+00
426 452       0.0000000000000000e+00
426 453       0.0000000000000000e+00
427 427       0.0000000000000000e+00
427 286       0.0000000000000000e+00
427 287       0.0000000000000000e+00
427 288       0.0000000000000000e+00
427 289       0.0000000000000000e+00
427 290       0.0000000000000000e+00
427 291       0.0000000000000000e+00
427 301       0.0000000000000000e+00
427 302       0.0000000000000000e+00
427 303       0.0000000000000000e+00
427 304       0.0000000000000000e+00
427 305       0.0000000000000000e+00
427 306       0.0000000000000000e+00
427 346       0.0000000000000000e+00
427 347       0.0000000000000000e+00
427 348       0.0000000000000000e+00
427 349       0.0000000000000000e+00
427 350       0.0000000000000000e+00
427 351       0.0000000000000000e+00
427 361       0.0000000000000000e+00
427 362       0.0000000000000000e+00
427 363       0.0000000000000000e+00
427 364       0.0000000000000000e+00
427 365       0.0000000000000000e+00
427 366       0.0000000000000000e+00
427 400       0.0000000000000000e+00
427 401       0.0000000000000000e+00
427 402       0.0000000000000000e+00
427 428       0.0000000000000000e+00
427 429       0.0000000000000000e+00
427 454       0.0000000000000000e+00
427 455       0.0000000000000000e+00
427 456       0.0000000000000000e+00
428 428       0.0000000000000000e+00
428 286       0.0000000000000000e+00
428 287       0.0000000000000000e+00
428 288       0.0000000000000000e+00
428 289       0.0000000000000000e+00
428 290       0.0000000000000000e+00
428 291       0.0000000000000000e+00
428 301       0.0000000000000000e+00
428 302       0.0000000000000000e+00
428 303       0.0000000000000000e+00
428 304       0.0000000000000000e+00
428 305       0.0000000000000000e+00
428 306       0.0000000000000000e+00
428 346       0.0000000000000000e+00
428 347       0.0000000000000000e+00
428 348       0.0000000000000000e+00
428 349       0.0000000000000000e+00
428 350       0.0000000000000000e+00
428 351       0.0000000000000000e+00
428 361       0.0000000000000000e+00
428 362       0.0000000000000000e+00
428 363       0.0000000000000000e+00
428 364       0.0000000000000000e+00
428 365       0.0000000000000000e+00
428 366       0.0000000000000000e+00
428 400       0.0000000000000000e+00
428 401       0.0000000000000000e+00
428 402       0.0000000000000000e+00
428 427       0.0000000000000000e+00
428 429       0.0000000000000000e+00
428 454       0.0000000000000000e+00
428 455       0.0000000000000000e+00
428 456       0.0000000000000000e+00
429 429       0.0000000000000000e+00
429 286       0.0000000000000000e+00
429 287       0.0000000000000000e+00
429 288       0.0000000000000000e+00
429 289       0.0000000000000000e+00
429 290       0.0000000000000000e+00
429 291       0.0000000000000000e+00
429 301       0.0000000000000000e+00
429 302       0.0000000000000000e+00
429 303       0.0000000000000000e+00
429 304       0.0000000000000000e+00
429 305       0.0000000000000000e+00
429 306       0.0000000000000000e+00
429 346       0.0000000000000000e+00
429 347       0.0000000000000000e+00
429 348       0.0000000000000000e+00
429 349       0.0000000000000000e+00
429 350       0.0000000000000000e+00
429 351       0.0000000000000000e+00
429 361       0.0000000000000000e+00
429 362       0.0000000000000000e+00
429 363       0.0000000000000000e+00
429 364       0.0000000000000000e+00
429 365       0.0000000000000000e+00
429 366       0.0000000000000000e+00
429 400       0.0000000000000000e+00
429 401       0.0000000000000000e+00
429 402       0.0000000000000000e+00
429 427       0.0000000000000000e+00
429 428       0.0000000000000000e+00
429 454       0.0000000000000000e+00
429 455       0.0000000000000000e+00
429 456       0.0000000000000000e+00
430 430       0.0000000000000000e+00
430 136       0.0000000000000000e+00
430 137       0.0000000000000000e+00
430 138       0.0000000000000000e+00
430 151       0.0000000000000000e+00
430 152       0.0000000000000000e+00
430 153       0.0000000000000000e+00
430 196       0.0000000000000000e+00
430 197       0.0000000000000000e+00
430 198       0.0000000000000000e+00
430 211       0.0000000000000000e+00
430 212       0.0000000000000000e+00
430 213       0.0000000000000000e+00
430 376       0.0000000000000000e+00
430 377       0.0000000000000000e+00
430 378       0.0000000000000000e+00
430 403       0.0000000000000000e+00
430 404       0.0000000000000000e+00
430 405       0.0000000000000000e+00
430 431       0.0000000000000000e+00
430 432       0.0000000000000000e+00
431 431       0.0000000000000000e+00
431 136       0.0000000000000000e+00
431 137       0.0000000000000000e+00
431 138       0.0000000000000000e+00
431 151       0.0000000000000000e+00
431 152       0.0000000000000000e+00
431 153       0.0000000000000000e+00
431 196       0.0000000000000000e+00
431 197       0.0000000000000000e+00
431 198       0.0000000000000000e+00
431 211       0.0000000000000000e+00
431 212       0.0000000000000000e+00
431 213       0.0000000000000000e+00
431 376       0.0000000000000000e+00
431 377       0.0000000000000000e+00
431 378       0.0000000000000000e+00
431 403       0.0000000000000000e+00
431 404       0.0000000000000000e+00
431 405       0.0000000000000000e+00
431 430       0.0000000000000000e+00
431 432       0.0000000000000000e+00
432 432       0.0000000000000000e+00
432 136       0.0000000000000000e+00
432 137       0.0000000000000000e+00
432 138       0.0000000000000000e+00
432 151       0.0000000000000000e+00
432 152       0.0000000000000000e+00
432 153       0.0000000000000000e+00
432 196       0.0000000000000000e+00
432 197       0.0000000000000000e+00
432 198       0.0000000000000000e+00
432 211       0.0000000000000000e+00
432 212       0.0000000000000000e+00
432 213       0.0000000000000000e+00
432 376       0.0000000000000000e+00
432 377       0.0000000000000000e+00
432 378       0.0000000000000000e+00
432 403       0.0000000000000000e+00
432 404       0.0000000000000000e+00
432 405       0.0000000000000000e+00
432 430       0.0000000000000000e+00
432 431       0.0000000000000000e+00
433 433       0.0000000000000000e+00
433 151       0.0000000000000000e+00
433 152       0.0000000000000000e+00
433 153       0.0000000000000000e+00
433 166       0.0000000000000000e+00
433 167       0.0000000000000000e+00
433 168       0.0000000000000000e+00
433 211       0.0000000000000000e+00
433 212       0.0000000000000000e+00
433 213       0.0000000000000000e+00
433 226       0.0000000000000000e+00
433 227       0.0000000000000000e+00
433 228       0.0000000000000000e+00
433 379       0.0000000000000000e+00
433 380       0.0000000000000000e+00
433 381       0.0000000000000000e+00
433 406       0.0000000000000000e+00
433 407       0.0000000000000000e+00
433 408       0.0000000000000000e+00
433 434       0.0000000000000000e+00
433 435       0.0000000000000000e+00
434 434       0.0000000000000000e+00
434 151       0.0000000000000000e+00
434 152       0.0000000000000000e+00
434 153       0.0000000000000000e+00
434 166       0.0000000000000000e+00
434 167       0.0000000000000000e+00
434 168       0.0000000000000000e+00
434 211       0.0000000000000000e+00
434 212       0.0000000000000000e+00
434 213       0.0000000000000000e+00
434 226       0.0000000000000000e+00
434 227       0.0000000000000000e+00
434 228       0.0000000000000000e+00
434 379       0.0000000000000000e+00
434 380       0.0000000000000000e+00
434 381       0.0000000000000000e+00
434 406       0.0000000000000000e+00
434 407       0.0000000000000000e+00
434 408       0.0000000000000000e+00
434 433       0.0000000000000000e+00
434 435       0.0000000000000000e+00
435 435       0.0000000000000000e+00
435 151       0.0000000000000000e+00
435 152       0.0000000000000000e+00
435 153       0.0000000000000000e+00
435 166       0.0000000000000000e+00
435 167       0.0000000000000000e+00
435 168       0.0000000000000000e+00
435 211       0.0000000000000000e+00
435 212       0.0000000000000000e+00
435 213       0.0000000000000000e+00
435 226       0.0000000000000000e+00
435 227       0.0000000000000000e+00
435 228       0.0000000000000000e+00
435 379       0.0000000000000000e+00
435 380       0.0000000000000000e+00
435 381       0.0000000000000000e+00
435 406       0.0000000000000000e+00
435 407       0.0000000000000000e+00
435 408       0.0000000000000000e+00
435 433       0.0000000000000000e+00
435 434       0.0000000000000000e+00
436 436       0.0000000000000000e+00
436 166       0.0000000000000000e+00
436 167       0.0000000000000000e+00
436 168       0.0000000000000000e+00
436 181       0.0000000000000000e+00
436 182       0.0000000000000000e+00
436 183       0.0000000000000000e+00
436 226       0.0000000000000000e+00
436 227       0.0000000000000000e+00
436 228       0.0000000000000000e+00
436 241       0.0000000000000000e+00
436 242       0.0000000000000000e+00
436 243       0.0000000000000000e+00
436 382       0.0000000000000000e+00
436 383       0.0000000000000000e+00
436 384       0.0000000000000000e+00
436 409       0.0000000000000000e+00
436 410       0.0000000000000000e+00
436 411       0.0000000000000000e+00
436 437       0.0000000000000000e+00
436 438       0.0000000000000000e+00
437 437       0.0000000000000000e+00
437 166       0.0000000000000000e+00
437 167       0.0000000000000000e+00
437 168       0.0000000000000000e+00
437 181       0.0000000000000000e+00
437 182       0.0000000000000000e+00
437 183       0.0000000000000000e+00
437 226       0.0000000000000000e+00
437 227       0.0000000000000000e+00
437 228       0.0000000000000000e+00
437 241       0.0000000000000000e+00
437 242       0.0000000000000000e+00
437 243       0.0000000000000000e+00
437 382       0.0000000000000000e+00
437 383       0.0000000000000000e+00
437 384       0.0000000000000000e+00
437 409       0.0000000000000000e+00
437 410       0.0000000000000000e+00
437 411       0.0000000000000000e+00
437 436       0.0000000000000000e+00
437 438       0.0000000000000000e+00
438 438       0.0000000000000000e+00
438 166       0.0000000000000000e+00
438 167       0.0000000000000000e+00
438 168       0.0000000000000000e+00
438 181       0.0000000000000000e+00
438 182       0.0000000000000000e+00
438 183       0.0000000000000000e+00
438 226       0.0000000000000000e+00
438 227       0.0000000000000000e+00
438 228       0.0000000000000000e+00
438 241       0.0000000000000000e+00
438 242       0.0000000000000000e+00
438 243       0.0000000000000000e+00
438 382       0.0000000000000000e+00
438 383       0.0000000000000000e+00
438 384       0.0000000000000000e+00
438 409       0.0000000000000000e+00
438 410       0.0000000000000000e+00
438 411       0.0000000000000000e+00
438 436       0.0000000000000000e+00
438 437       0.0000000000000000e+00
439 439       0.0000000000000000e+00
439 196       0.0000000000000000e+00
439 197       0.0000000000000000e+00
439 198       0.0000000000000000e+00
439 211       0.0000000000000000e+00
439 212       0.0000000000000000e+00
439 213       0.0000000000000000e+00
439 256       0.0000000000000000e+00
439 257       0.0000000000000000e+00
439 258       0.0000000000000000e+00
439 271       0.0000000000000000e+00
439 272       0.0000000000000000e+00
439 273       0.0000000000000000e+00
439 385       0.0000000000000000e+00
439 386       0.0000000000000000e+00
439 387       0.0000000000000000e+00
439 412       0.0000000000000000e+00
439 413       0.0000000000000000e+00
439 414       0.0000000000000000e+00
439 440       0.0000000000000000e+00
439 441       0.0000000000000000e+00
440 440       0.0000000000000000e+00
440 196       0.0000000000000000e+00
440 197       0.0000000000000000e+00
440 198       0.0000000000000000e+00
440 211       0.0000000000000000e+00
440 212       0.0000000000000000e+00
440 213       0.0000000000000000e+00
440 256       0.0000000000000000e+00
440 257       0.0000000000000000e+00
440 258       0.0000000000000000e+00
440 271       0.0000000000000000e+00
440 272       0.0000000000000000e+00
440 273       0.0000000000000000e+00
440 385       0.0000000000000000e+00
440 386       0.0000000000000000e+00
440 387       0.0000000000000000e+00
440 412       0.0000000000000000e+00
440 413       0.0000000000000000e+00
440 414       0.0000000000000000e+00
440 439       0.0000000000000000e+00
440 441       0.0000000000000000e+00
441 441       0.0000000000000000e+00
441 196       0.0000000000000000e+00
441 197       0.0000000000000000e+00
441 198       0.0000000000000000e+00
441 211       0.0000000000000000e+00
441 212       0.0000000000000000e+00
441 213       0.0000000000000000e+00
441 256       0.0000000000000000e+00
441 257       0.0000000000000000e+00
441 258       0.0000000000000000e+00
441 271       0.0000000000000000e+00
441 272       0.0000000000000000e+00
441 273       0.0000000000000000e+00
441 385       0.0000000000000000e+00
441 386       0.0000000000000000e+00
441 387       0.0000000000000000e+00
441 412       0.0000000000000000e+00
441 413       0.0000000000000000e+00
441 414       0.0000000000000000e+00
441 439       0.0000000000000000e+00
441 440       0.0000000000000000e+00
442 442       0.0000000000000000e+00
442 211       0.0000000000000000e+00
442 212       0.0000000000000000e+00
442 213       0.0000000000000000e+00
442 226       0.0000000000000000e+00
442 227       0.0000000000000000e+00
442 228       0.0000000000000000e+00
442 271       0.0000000000000000e+00
442 272       0.0000000000000000e+00
442 273       0.0000000000000000e+00
442 286       0.0000000000000000e+00
442 287       0.0000000000000000e+00
442 288       0.0000000000000000e+00
442 388       0.0000000000000000e+00
442 389       0.0000000000000000e+00
442 390       0.0000000000000000e+00
442 415       0.0000000000000000e+00
442 416       0.0000000000000000e+00
442 417       0.0000000000000000e+00
442 443       0.0000000000000000e+00
442 444       0.0000000000000000e+00
443 443       0.0000000000000000e+00
443 211       0.0000000000000000e+00
443 212       0.0000000000000000e+00
443 213       0.0000000000000000e+00
443 226       0.0000000000000000e+00
443 227       0.0000000000000000e+00
443 228       0.0000000000000000e+00
443 271       0.0000000000000000e+00
443 272       0.0000000000000000e+00
443 273       0.0000000000000000e+00
443 286       0.0000000000000000e+00
443 287       0.0000000000000000e+00
443 288       0.0000000000000000e+00
443 388       0.0000000000000000e+00
443 389       0.0000000000000000e+00
443 390       0.0000000000000000e+00
443 415       0.0000000000000000e+00
443 416       0.0000000000000000e+00
443 417       0.0000000000000000e+00
443 442       0.0000000000000000e+00
443 444       0.0000000000000000e+00
444 444       0.0000000000000000e+00
444 211       0.0000000000000000e+00
444 212       0.0000000000000000e+00
444 213       0.0000000000000000e+00
444 226       0.0000000000000000e+00
444 227       0.0000000000000000e+00
444 228       0.0000000000000000e+00
444 271       0.0000000000000000e+00
444 272       0.0000000000000000e+00
444 273       0.0000000000000000e+00
444 286       0.0000000000000000e+00
444 287       0.0000000000000000e+00
444 288       0.0000000000000000e+00
444 388       0.0000000000000000e+00
444 389       0.0000000000000000e+00
444 390       0.0000000000000000e+00
444 415       0.0000000000000000e+00
444 416       0.0000000000000000e+00
444 417       0.0000000000000000e+00
444 442       0.0000000000000000e+00
444 443       0.0000000000000000e+00
445 445       0.0000000000000000e+00
445 226       0.0000000000000000e+00
445 227       0.0000000000000000e+00
445 228       0.0000000000000000e+00
445 241       0.0000000000000000e+00
445 242       0.0000000000000000e+00
445 243       0.0000000000000000e+00
445 286       0.0000000000000000e+00
445 287       0.0000000000000000e+00
445 288       0.0000000000000000e+00
445 301       0.0000000000000000e+00
445 302       0.0000000000000000e+00
445 303       0.0000000000000000e+00
445 391       0.0000000000000000e+00
445 392       0.0000000000000000e+00
445 393       0.0000000000000000e+00
445 418       0.0000000000000000e+00
445 419       0.0000000000000000e+00
445 420       0.0000000000000000e+00
445 446       0.0000000000000000e+00
445 447       0.0000000000000000e+00
446 446       0.0000000000000000e+00
446 226       0.0000000000000000e+00
446 227       0.0000000000000000e+00
446 228       0.0000000000000000e+00
446 241       0.0000000000000000e+00
446 242       0.0000000000000000e+00
446 243       0.0000000000000000e+00
446 286       0.0000000000000000e+00
446 287       0.0000000000000000e+00
446 288       0.0000000000000000e+00
446 301       0.0000000000000000e+00
446 302       0.0000000000000000e+00
446 303       0.0000000000000000e+00
446 391       0.0000000000000000e+00
446 392       0.0000000000000000e+00
446 393       0.0000000000000000e+00
446 418       0.0000000000000000e+00
446 419       0.0000000000000000e+00
446 420       0.0000000000000000e+00
446 445       0.0000000000000000e+00
446 447       0.0000000000000000e+00
447 447       0.0000000000000000e+00
447 226       0.0000000000000000e+00
447 227       0.0000000000000000e+00
447 228       0.0000000000000000e+00
447 241       0.0000000000000000e+00
447 242       0.0000000000000000e+00
447 243       0.0000000000000000e+00
447 286       0.0000000000000000e+00
447 287       0.0000000000000000e+00
447 288       0.0000000000000000e+00
447 301       0.0000000000000000e+00
447 302       0.0000000000000000e+00
447 303       0.0000000000000000e+00
447 391       0.0000000000000000e+00
447 392       0.0000000000000000e+00
447 393       0.0000000000000000e+00
447 418       0.0000000000000000e+00
447 419       0.0000000000000000e+00
447 420       0.0000000000000000e+00
447 445       0.0000000000000000e+00
447 446       0.0000000000000000e+00
448 448       0.0000000000000000e+00
448 256       0.0000000000000000e+00
448 257       0.0000000000000000e+00
448 258       0.0000000000000000e+00
448 271       0.0000000000000000e+00
448 272       0.0000000000000000e+00
448 273       0.0000000000000000e+00
448 316       0.0000000000000000e+00
448 317       0.0000000000000000e+00
448 318       0.0000000000000000e+00
448 331       0.0000000000000000e+00
448 332       0.0000000000000000e+00
448 333       0.0000000000000000e+00
448 394       0.0000000000000000e+00
448 395       0.0000000000000000e+00
448 396       0.0000000000000000e+00
448 421       0.0000000000000000e+00
448 422       0.0000000000000000e+00
448 423       0.0000000000000000e+00
448 449       0.0000000000000000e+00
448 450       0.0000000000000000e+00
449 449       0.0000000000000000e+00
449 256       0.0000000000000000e+00
449 257       0.0000000000000000e+00
449 258       0.0000000000000000e+00
449 271       0.0000000000000000e+00
449 272       0.0000000000000000e+00
449 273       0.0000000000000000e+00
449 316       0.0000000000000000e+00
449 317       0.0000000000000000e+00
449 318       0.0000000000000000e+00
449 331       0.0000000000000000e+00
449 332       0.0000000000000000e+00
449 333       0.0000000000000000e+00
449 394       0.0000000000000000e+00
449 395       0.0000000000000000e+00
449 396       0.0000000000000000e+00
449 421       0.0000000000000000e+00
449 422       0.0000000000000000e+00
449 423       0.0000000000000000e+00
449 448       0.0000000000000000e+00
449 450       0.0000000000000000e+00
450 450       0.0000000000000000e+00
450 256       0.0000000000000000e+00
450 257       0.0000000000000000e+00
450 258       0.0000000000000000e+00
450 271       0.0000000000000000e+00
450 272       0.0000000000000000e+00
450 273       0.0000000000000000e+00
450 316       0.0000000000000000e+00
450 317       0.0000000000000000e+00
450 318       0.0000000000000000e+00
450 331       0.0000000000000000e+00
450 332       0.0000000000000000e+00
450 333       0.0000000000000000e+00
450 394       0.0000000000000000e+00
450 395       0.0000000000000000e+00
450 396       0.0000000000000000e+00
450 421       0.0000000000000000e+00
450 422       0.0000000000000000e+00
450 423       0.0000000000000000e+00
450 448       0.0000000000000000e+00
450 449       0.0000000000000000e+00
451 451       0.0000000000000000e+00
451 271       0.0000000000000000e+00
451 272       0.0000000000000000e+00
451 273       0.0000000000000000e+00
451 286       0.0000000000000000e+00
451 287       0.0000000000000000e+00
451 288       0.0000000000000000e+00
451 331       0.0000000000000000e+00
451 332       0.0000000000000000e+00
451 333       0.0000000000000000e+00
451 346       0.0000000000000000e+00
451 347       0.0000000000000000e+00
451 348       0.0000000000000000e+00
451 397       0.0000000000000000e+00
451 398       0.0000000000000000e+00
451 399       0.0000000000000000e+00
451 424       0.0000000000000000e+00
451 425       0.0000000000000000e+00
451 426       0.0000000000000000e+00
451 452       0.0000000000000000e+00
451 453       0.0000000000000000e+00
452 452       0.0000000000000000e+00
452 271       0.0000000000000000e+00
452 272       0.0000000000000000e+00
452 273       0.0000000000000000e+00
452 286       0.0000000000000000e+00
452 287       0.0000000000000000e+00
452 288       0.0000000000000000e+00
452 331       0.0000000000000000e+00
452 332       0.0000000000000000e+00
452 333       0.0000000000000000e+00
452 346       0.0000000000000000e+00
452 347       0.0000000000000000e+00
452 348       0.0000000000000000e+00
452 397       0.0000000000000000e+00
452 398       0.0000000000000000e+00
452 399       0.0000000000000000e+00
452 424       0.0000000000000000e+00
452 425       0.0000000000000000e+00
452 426       0.0000000000000000e+00
452 451       0.0000000000000000e+00
452 453       0.0000000000000000e+00
453 453       0.0000000000000000e+00
453 271       0.0000000000000000e+00
453 272       0.0000000000000000e+00
453 273       0.0000000000000000e+00
453 286       0.0000000000000000e+00
453 287       0.0000000000000000e+00
453 288       0.0000000000000000e+00
453 331       0.0000000000000000e+00
453 332       0.0000000000000000e+00
453 333       0.0000000000000000e+00
453 346       0.0000000000000000e+00
453 347       0.0000000000000000e+00
453 348       0.0000000000000000e+00
453 397       0.0000000000000000e+00
453 398       0.0000000000000000e+00
453 399       0.0000000000000000e+00
453 424       0.0000000000000000e+00
453 425       0.0000000000000000e+00
453 426       0.0000000000000000e+00
453 451       0.0000000000000000e+00
453 452       0.0000000000000000e+00
454 454       0.0000000000000000e+00
454 286       0.0000000000000000e+00
454 287       0.0000000000000000e+00
454 288       0.0000000000000000e+00
454 301       0.0000000000000000e+00
454 302       0.0000000000000000e+00
454 303       0.0000000000000000e+00
454 346       0.0000000000000000e+00
454 347       0.0000000000000000e+00
454 348       0.0000000000000000e+00
454 361       0.0000000000000000e+00
454 362       0.0000000000000000e+00
454 363       0.0000000000000000e+00
454 400       0.0000000000000000e+00
454 401       0.0000000000000000e+00
454 402       0.0000000000000000e+00
454 427       0.0000000000000000e+00
454 428       0.0000000000000000e+00
454 429       0.0000000000000000e+00
454 455       0.0000000000000000e+00
454 456       0.0000000000000000e+00
455 455       0.0000000000000000e+00
455 286       0.0000000000000000e+00
455 287       0.0000000000000000e+00
455 288       0.0000000000000000e+00
455 301       0.0000000000000000e+00
455 302       0.0000000000000000e+00
455 303       0.0000000000000000e+00
455 346       0.0000000000000000e+00
455 347       0.0000000000000000e+00
455 348       0.0000000000000000e+00
455 361       0.0000000000000000e+00
455 362       0.0000000000000000e+00
455 363       0.0000000000000000e+00
455 400       0.0000000000000000e+00
455 401       0.0000000000000000e+00
455 402       0.0000000000000000e+00
455 427       0.0000000000000000e+00
455 428       0.0000000000000000e+00
455 429       0.0000000000000000e+00
455 454       0.0000000000000000e+00
455 456       0.0000000000000000e+00
456 456       0.0000000000000000e+00
456 286       0.0000000000000000e+00
456 287       0.0000000000000000e+00
456 288       0.0000000000000000e+00
456 301       0.0000000000000000e+00
456 302       0.0000000000000000e+00
456 303       0.0000000000000000e+00
456 346       0.0000000000000000e+00
456 347       0.0000000000000000e+00
456 348       0.0000000000000000e+00
456 361       0.0000000000000000e+00
456 362       0.0000000000000000e+00
456 363       0.0000000000000000e+00
456 400       0.0000000000000000e+00
456 401       0.0000000000000000e+00
456 402       0.0000000000000000e+00
456 427       0.0000000000000000e+00
456 428       0.0000000000000000e+00
456 429       0.0000000000000000e+00
456 454       0.0000000000000000e+00
456 455       0.0000000000000000e+00
